 Entering Gaussian System, Link 0=/apps/gaussian/g16c02/g16/g16
 Initial command:
 /apps/gaussian/g16c02/g16/l1.exe "/tmp/webmo-2/138063/Gau-1823410.inp" -scrdir="/tmp/webmo-2/138063/"
 Entering Link 1 = /apps/gaussian/g16c02/g16/l1.exe PID=   1823411.
  
 Copyright (c) 1988-2021, Gaussian, Inc.  All Rights Reserved.
  
 This is part of the Gaussian(R) 16 program.  It is based on
 the Gaussian(R) 09 system (copyright 2009, Gaussian, Inc.),
 the Gaussian(R) 03 system (copyright 2003, Gaussian, Inc.),
 the Gaussian(R) 98 system (copyright 1998, Gaussian, Inc.),
 the Gaussian(R) 94 system (copyright 1995, Gaussian, Inc.),
 the Gaussian 92(TM) system (copyright 1992, Gaussian, Inc.),
 the Gaussian 90(TM) system (copyright 1990, Gaussian, Inc.),
 the Gaussian 88(TM) system (copyright 1988, Gaussian, Inc.),
 the Gaussian 86(TM) system (copyright 1986, Carnegie Mellon
 University), and the Gaussian 82(TM) system (copyright 1983,
 Carnegie Mellon University). Gaussian is a federally registered
 trademark of Gaussian, Inc.
  
 This software contains proprietary and confidential information,
 including trade secrets, belonging to Gaussian, Inc.
  
 This software is provided under written license and may be
 used, copied, transmitted, or stored only in accord with that
 written license.
  
 The following legend is applicable only to US Government
 contracts under FAR:
  
                    RESTRICTED RIGHTS LEGEND
  
 Use, reproduction and disclosure by the US Government is
 subject to restrictions as set forth in subparagraphs (a)
 and (c) of the Commercial Computer Software - Restricted
 Rights clause in FAR 52.227-19.
  
 Gaussian, Inc.
 340 Quinnipiac St., Bldg. 40, Wallingford CT 06492
  
  
 ---------------------------------------------------------------
 Warning -- This program may not be used in any manner that
 competes with the business of Gaussian, Inc. or will provide
 assistance to any competitor of Gaussian, Inc.  The licensee
 of this program is prohibited from giving any competitor of
 Gaussian, Inc. access to this program.  By using this program,
 the user acknowledges that Gaussian, Inc. is engaged in the
 business of creating and licensing software in the field of
 computational chemistry and represents and warrants to the
 licensee that it is not a competitor of Gaussian, Inc. and that
 it will not use this program in any manner prohibited above.
 ---------------------------------------------------------------
  

 Cite this work as:
 Gaussian 16, Revision C.02,
 M. J. Frisch, G. W. Trucks, H. B. Schlegel, G. E. Scuseria, 
 M. A. Robb, J. R. Cheeseman, G. Scalmani, V. Barone, 
 G. A. Petersson, H. Nakatsuji, X. Li, M. Caricato, A. V. Marenich, 
 J. Bloino, B. G. Janesko, R. Gomperts, B. Mennucci, H. P. Hratchian, 
 J. V. Ortiz, A. F. Izmaylov, J. L. Sonnenberg, D. Williams-Young, 
 F. Ding, F. Lipparini, F. Egidi, J. Goings, B. Peng, A. Petrone, 
 T. Henderson, D. Ranasinghe, V. G. Zakrzewski, J. Gao, N. Rega, 
 G. Zheng, W. Liang, M. Hada, M. Ehara, K. Toyota, R. Fukuda, 
 J. Hasegawa, M. Ishida, T. Nakajima, Y. Honda, O. Kitao, H. Nakai, 
 T. Vreven, K. Throssell, J. A. Montgomery, Jr., J. E. Peralta, 
 F. Ogliaro, M. J. Bearpark, J. J. Heyd, E. N. Brothers, K. N. Kudin, 
 V. N. Staroverov, T. A. Keith, R. Kobayashi, J. Normand, 
 K. Raghavachari, A. P. Rendell, J. C. Burant, S. S. Iyengar, 
 J. Tomasi, M. Cossi, J. M. Millam, M. Klene, C. Adamo, R. Cammi, 
 J. W. Ochterski, R. L. Martin, K. Morokuma, O. Farkas, 
 J. B. Foresman, and D. J. Fox, Gaussian, Inc., Wallingford CT, 2019.
 
 ******************************************
 Gaussian 16:  ES64L-G16RevC.02  7-Dec-2021
                 8-Sep-2026 
 ******************************************
 %NProcShared=28
 Will use up to   28 processors via shared memory.
 %CHK=output.chk
 ----------------------------------------------------------------
 #N APFD/6-311+G(2d,p) Opt Freq=(Raman,hpmodes) Geom=Connectivity
 ----------------------------------------------------------------
 1/18=20,19=15,26=3,38=1,57=2/1,3;
 2/9=110,12=2,17=6,18=5,40=1/2;
 3/5=4,6=6,7=112,11=2,25=1,30=1,71=1,74=-44/1,2,3;
 4//1;
 5/5=2,38=5/2;
 6/7=2,8=2,9=2,10=2,28=1/1;
 7//1,2,3,16;
 1/18=20,19=15,26=3/3(2);
 2/9=110/2;
 99//99;
 2/9=110/2;
 3/5=4,6=6,7=112,11=2,25=1,30=1,71=1,74=-44/1,2,3;
 4/5=5,16=3,69=1/1;
 5/5=2,38=5/2;
 7//1,2,3,16;
 1/18=20,19=15,26=3/3(-5);
 2/9=110/2;
 6/7=2,8=2,9=2,10=2,19=2,28=1/1;
 99/9=1/99;
 -------
 C2H4Cl2
 -------
 Symbolic Z-matrix:
 Charge =  0 Multiplicity = 1
 Cl
 C                    1    B1
 C                    2    B2       1    A1
 Cl                   3    B3       2    A2       1    D1       0
 H                    3    B4       4    A3       2    D2       0
 H                    3    B5       4    A4       2    D3       0
 H                    2    B6       1    A5       3    D4       0
 H                    2    B7       1    A6       3    D5       0
       Variables:
  B1                    1.79468                  
  B2                    1.50847                  
  B3                    1.79468                  
  B4                    1.08856                  
  B5                    1.08856                  
  B6                    1.08856                  
  B7                    1.08856                  
  A1                  109.10702                  
  A2                  109.10702                  
  A3                  107.21903                  
  A4                  107.21903                  
  A5                  107.21903                  
  A6                  107.21903                  
  D1                   69.                       
  D2                 -121.19279                  
  D3                  121.19279                  
  D4                  121.19279                  
  D5                 -121.19279                  
 

 GradGradGradGradGradGradGradGradGradGradGradGradGradGradGradGradGradGrad
 Berny optimization.
 Initialization pass.
                           ----------------------------
                           !    Initial Parameters    !
                           ! (Angstroms and Degrees)  !
 --------------------------                            --------------------------
 ! Name  Definition              Value          Derivative Info.                !
 --------------------------------------------------------------------------------
 ! R1    R(1,2)                  1.7947         estimate D2E/DX2                !
 ! R2    R(2,3)                  1.5085         estimate D2E/DX2                !
 ! R3    R(2,7)                  1.0886         estimate D2E/DX2                !
 ! R4    R(2,8)                  1.0886         estimate D2E/DX2                !
 ! R5    R(3,4)                  1.7947         estimate D2E/DX2                !
 ! R6    R(3,5)                  1.0886         estimate D2E/DX2                !
 ! R7    R(3,6)                  1.0886         estimate D2E/DX2                !
 ! A1    A(1,2,3)              109.107          estimate D2E/DX2                !
 ! A2    A(1,2,7)              107.219          estimate D2E/DX2                !
 ! A3    A(1,2,8)              107.219          estimate D2E/DX2                !
 ! A4    A(3,2,7)              111.7497         estimate D2E/DX2                !
 ! A5    A(3,2,8)              111.7497         estimate D2E/DX2                !
 ! A6    A(7,2,8)              109.5889         estimate D2E/DX2                !
 ! A7    A(2,3,4)              109.107          estimate D2E/DX2                !
 ! A8    A(2,3,5)              111.7497         estimate D2E/DX2                !
 ! A9    A(2,3,6)              111.7497         estimate D2E/DX2                !
 ! A10   A(4,3,5)              107.219          estimate D2E/DX2                !
 ! A11   A(4,3,6)              107.219          estimate D2E/DX2                !
 ! A12   A(5,3,6)              109.5889         estimate D2E/DX2                !
 ! D1    D(1,2,3,4)             69.0            estimate D2E/DX2                !
 ! D2    D(1,2,3,5)           -172.608          estimate D2E/DX2                !
 ! D3    D(1,2,3,6)            -49.392          estimate D2E/DX2                !
 ! D4    D(7,2,3,4)            -49.392          estimate D2E/DX2                !
 ! D5    D(7,2,3,5)             69.0            estimate D2E/DX2                !
 ! D6    D(7,2,3,6)           -167.784          estimate D2E/DX2                !
 ! D7    D(8,2,3,4)           -172.608          estimate D2E/DX2                !
 ! D8    D(8,2,3,5)            -54.216          estimate D2E/DX2                !
 ! D9    D(8,2,3,6)             69.0            estimate D2E/DX2                !
 --------------------------------------------------------------------------------
 Trust Radius=3.00D-01 FncErr=1.00D-07 GrdErr=1.00D-06 EigMax=2.50D+02 EigMin=1.00D-04
 Number of steps in this run=     38 maximum allowed number of steps=    100.
 GradGradGradGradGradGradGradGradGradGradGradGradGradGradGradGradGradGrad

                          Input orientation:                          
 ---------------------------------------------------------------------
 Center     Atomic      Atomic             Coordinates (Angstroms)
 Number     Number       Type             X           Y           Z
 ---------------------------------------------------------------------
      1         17           0        0.000000    0.000000    0.000000
      2          6           0        0.000000    0.000000    1.794677
      3          6           0        1.425364    0.000000    2.288449
      4         17           0        2.179386    1.583171    1.906501
      5          1           0        1.478306   -0.130081    3.367911
      6          1           0        2.021924   -0.767581    1.798657
      7          1           0       -0.538517    0.889450    2.116918
      8          1           0       -0.538517   -0.889450    2.116918
 ---------------------------------------------------------------------
                    Distance matrix (angstroms):
                    1          2          3          4          5
     1  Cl   0.000000
     2  C    1.794677   0.000000
     3  C    2.696046   1.508467   0.000000
     4  Cl   3.300137   2.696046   1.794677   0.000000
     5  H    3.680371   2.162723   1.088559   2.358488   0.000000
     6  H    2.812921   2.162723   1.088559   2.358488   1.778900
     7  H    2.358488   1.088559   2.162723   2.812921   2.583021
     8  H    2.358488   1.088559   2.162723   3.680371   2.491826
                    6          7          8
     6  H    0.000000
     7  H    3.066415   0.000000
     8  H    2.583021   1.778900   0.000000
 Stoichiometry    C2H4Cl2
 Framework group  C2[X(C2H4Cl2)]
 Deg. of freedom    10
 Full point group                 C2      NOp   2
 Largest Abelian subgroup         C2      NOp   2
 Largest concise Abelian subgroup C2      NOp   2
                         Standard orientation:                         
 ---------------------------------------------------------------------
 Center     Atomic      Atomic             Coordinates (Angstroms)
 Number     Number       Type             X           Y           Z
 ---------------------------------------------------------------------
      1         17           0        0.643432    1.519448   -0.478915
      2          6           0        0.643432    0.393528    0.918643
      3          6           0       -0.643432   -0.393528    0.918643
      4         17           0       -0.643432   -1.519448   -0.478915
      5          1           0       -0.747163   -0.997019    1.818642
      6          1           0       -1.512081    0.253649    0.811062
      7          1           0        1.512081   -0.253649    0.811062
      8          1           0        0.747163    0.997019    1.818642
 ---------------------------------------------------------------------
 Rotational constants (GHZ):           9.5645608           2.3845248           2.0468497
 Standard basis: 6-311+G(2d,p) (5D, 7F)
 There are    78 symmetry adapted cartesian basis functions of A   symmetry.
 There are    78 symmetry adapted cartesian basis functions of B   symmetry.
 There are    74 symmetry adapted basis functions of A   symmetry.
 There are    74 symmetry adapted basis functions of B   symmetry.
   148 basis functions,   234 primitive gaussians,   156 cartesian basis functions
    25 alpha electrons       25 beta electrons
       nuclear repulsion energy       204.6334604462 Hartrees.
 NAtoms=    8 NActive=    8 NUniq=    4 SFac= 4.00D+00 NAtFMM=   60 NAOKFM=F Big=F
 Integral buffers will be    131072 words long.
 Raffenetti 2 integral format.
 Two-electron integral symmetry is turned on.
 R6APFD:  NTU= -4 IXU= 1 FactS= 1.050
 Nuclear repulsion after empirical dispersion term =      204.6308148231 Hartrees.
 One-electron integrals computed using PRISM.
 NBasis=   148 RedAO= T EigKep=  1.28D-04  NBF=    74    74
 NBsUse=   148 1.00D-06 EigRej= -1.00D+00 NBFU=    74    74
 ExpMin= 4.38D-02 ExpMax= 1.06D+05 ExpMxC= 3.62D+03 IAcc=3 IRadAn=         5 AccDes= 0.00D+00
 Harris functional with IExCor= 3731 and IRadAn=       5 diagonalized for initial guess.
 HarFok:  IExCor= 3731 AccDes= 0.00D+00 IRadAn=         5 IDoV= 1 UseB2=F ITyADJ=14
 ICtDFT=  3500011 ScaDFX=  1.000000  1.000000  1.000000  1.000000
 FoFCou: FMM=F IPFlag=           0 FMFlag=      100000 FMFlg1=           0
         NFxFlg=           0 DoJE=T BraDBF=F KetDBF=T FulRan=T
         wScrn=  0.000000 ICntrl=       500 IOpCl=  0 I1Cent=   200000004 NGrid=           0
         NMat0=    1 NMatS0=      1 NMatT0=    0 NMatD0=    1 NMtDS0=    0 NMtDT0=    0
 Petite list used in FoFCou.
 Initial guess orbital symmetries:
       Occupied  (A) (B) (A) (B) (A) (B) (A) (B) (A) (B) (A) (B)
                 (A) (B) (A) (B) (B) (A) (A) (A) (B) (A) (B) (A)
                 (B)
       Virtual   (A) (A) (B) (B) (B) (A) (B) (A) (A) (A) (B) (B)
                 (A) (B) (A) (B) (A) (B) (A) (B) (B) (B) (A) (B)
                 (A) (B) (A) (A) (B) (A) (B) (A) (B) (A) (B) (A)
                 (B) (A) (A) (B) (A) (B) (B) (A) (B) (A) (B) (B)
                 (A) (A) (A) (B) (B) (A) (B) (A) (B) (B) (A) (B)
                 (A) (B) (A) (A) (B) (B) (A) (B) (A) (B) (A) (A)
                 (B) (B) (A) (B) (A) (A) (B) (A) (B) (A) (B) (B)
                 (A) (B) (A) (B) (A) (B) (A) (A) (B) (A) (B) (A)
                 (A) (B) (A) (A) (B) (B) (A) (B) (B) (A) (B) (A)
                 (A) (B) (B) (B) (A) (B) (A) (A) (B) (B) (A) (B)
                 (A) (B) (A)
 The electronic state of the initial guess is 1-A.
 Keep R1 ints in memory in symmetry-blocked form, NReq=91216533.
 Requested convergence on RMS density matrix=1.00D-08 within 128 cycles.
 Requested convergence on MAX density matrix=1.00D-06.
 Requested convergence on             energy=1.00D-06.
 No special actions if energy rises.
 SCF Done:  E(RAPFD) =  -998.793848226     A.U. after   11 cycles
            NFock= 11  Conv=0.54D-08     -V/T= 2.0023

 **********************************************************************

            Population analysis using the SCF Density.

 **********************************************************************

 Orbital symmetries:
       Occupied  (A) (B) (A) (B) (A) (B) (B) (A) (A) (B) (B) (A)
                 (A) (B) (A) (B) (B) (A) (A) (A) (B) (B) (A) (A)
                 (B)
       Virtual   (A) (B) (A) (B) (B) (A) (B) (A) (A) (A) (B) (B)
                 (A) (B) (A) (B) (A) (B) (A) (B) (B) (B) (A) (A)
                 (B) (A) (B) (A) (B) (A) (A) (B) (B) (A) (B) (A)
                 (A) (B) (A) (B) (B) (A) (B) (A) (B) (A) (B) (B)
                 (A) (A) (A) (B) (B) (A) (B) (B) (A) (A) (B) (B)
                 (A) (B) (A) (A) (B) (B) (A) (B) (A) (B) (A) (A)
                 (B) (A) (B) (B) (A) (A) (B) (A) (B) (A) (B) (B)
                 (A) (B) (A) (B) (A) (B) (A) (A) (B) (A) (B) (A)
                 (A) (B) (A) (B) (A) (B) (A) (B) (B) (A) (B) (A)
                 (A) (B) (B) (B) (A) (B) (A) (A) (B) (B) (A) (B)
                 (A) (B) (A)
 The electronic state is 1-A.
 Alpha  occ. eigenvalues -- -101.64417-101.64417 -10.27635 -10.27608  -9.50538
 Alpha  occ. eigenvalues --   -9.50538  -7.25230  -7.25230  -7.24246  -7.24246
 Alpha  occ. eigenvalues --   -7.24227  -7.24227  -0.91027  -0.85614  -0.74871
 Alpha  occ. eigenvalues --   -0.64333  -0.50902  -0.50324  -0.45627  -0.41692
 Alpha  occ. eigenvalues --   -0.41076  -0.32357  -0.32232  -0.31307  -0.30723
 Alpha virt. eigenvalues --   -0.00836   0.01471   0.01550   0.03661   0.04348
 Alpha virt. eigenvalues --    0.04616   0.07884   0.08480   0.09068   0.09803
 Alpha virt. eigenvalues --    0.09936   0.11148   0.11916   0.12557   0.12960
 Alpha virt. eigenvalues --    0.13588   0.16893   0.18695   0.18927   0.19807
 Alpha virt. eigenvalues --    0.22138   0.23198   0.25270   0.36199   0.36625
 Alpha virt. eigenvalues --    0.38270   0.38877   0.40858   0.40977   0.42466
 Alpha virt. eigenvalues --    0.44911   0.44985   0.45972   0.47931   0.48107
 Alpha virt. eigenvalues --    0.48607   0.49645   0.49768   0.52106   0.55663
 Alpha virt. eigenvalues --    0.59041   0.60314   0.61277   0.65987   0.67091
 Alpha virt. eigenvalues --    0.71912   0.72342   0.74335   0.76167   0.79928
 Alpha virt. eigenvalues --    0.82078   0.87875   0.94419   0.98019   1.01405
 Alpha virt. eigenvalues --    1.11480   1.11781   1.18455   1.18820   1.23001
 Alpha virt. eigenvalues --    1.25307   1.29858   1.30589   1.61552   1.63278
 Alpha virt. eigenvalues --    1.75561   1.83765   1.94735   2.02741   2.08281
 Alpha virt. eigenvalues --    2.14033   2.23327   2.24684   2.28364   2.28635
 Alpha virt. eigenvalues --    2.35077   2.35994   2.37631   2.37834   2.38637
 Alpha virt. eigenvalues --    2.39308   2.42294   2.43898   2.46246   2.46373
 Alpha virt. eigenvalues --    2.53420   2.53854   2.56590   2.59107   2.65421
 Alpha virt. eigenvalues --    2.65627   2.74283   2.75557   2.84264   2.84510
 Alpha virt. eigenvalues --    3.13010   3.16715   3.23834   3.26484   3.35495
 Alpha virt. eigenvalues --    3.35832   3.41883   3.42316   3.47678   3.53957
 Alpha virt. eigenvalues --    3.54037   3.68253   3.82899   4.16811   4.19510
 Alpha virt. eigenvalues --    4.39538   9.78632   9.82609  23.85912  23.91628
 Alpha virt. eigenvalues --   25.94376  25.97159  25.97831  26.05776  26.84899
 Alpha virt. eigenvalues --   27.17581 215.90889 215.95343
          Condensed to atoms (all electrons):
               1          2          3          4          5          6
     1  Cl  16.898433   0.202482  -0.047301   0.018520   0.013242  -0.015140
     2  C    0.202482   5.270357   0.221989  -0.047301  -0.052916  -0.032691
     3  C   -0.047301   0.221989   5.270357   0.202482   0.390602   0.433510
     4  Cl   0.018520  -0.047301   0.202482  16.898433  -0.034052  -0.055246
     5  H    0.013242  -0.052916   0.390602  -0.034052   0.546377  -0.036164
     6  H   -0.015140  -0.032691   0.433510  -0.055246  -0.036164   0.511272
     7  H   -0.055246   0.433510  -0.032691  -0.015140  -0.002194   0.004763
     8  H   -0.034052   0.390602  -0.052916   0.013242   0.000026  -0.002194
               7          8
     1  Cl  -0.055246  -0.034052
     2  C    0.433510   0.390602
     3  C   -0.032691  -0.052916
     4  Cl  -0.015140   0.013242
     5  H   -0.002194   0.000026
     6  H    0.004763  -0.002194
     7  H    0.511272  -0.036164
     8  H   -0.036164   0.546377
 Mulliken charges:
               1
     1  Cl   0.019062
     2  C   -0.386031
     3  C   -0.386031
     4  Cl   0.019062
     5  H    0.175079
     6  H    0.191890
     7  H    0.191890
     8  H    0.175079
 Sum of Mulliken charges =  -0.00000
 Mulliken charges with hydrogens summed into heavy atoms:
               1
     1  Cl   0.019062
     2  C   -0.019062
     3  C   -0.019062
     4  Cl   0.019062
 Electronic spatial extent (au):  <R**2>=            560.7616
 Charge=              0.0000 electrons
 Dipole moment (field-independent basis, Debye):
    X=              0.0000    Y=              0.0000    Z=              2.7990  Tot=              2.7990
 Quadrupole moment (field-independent basis, Debye-Ang):
   XX=            -37.9198   YY=            -41.9953   ZZ=            -35.2101
   XY=             -1.7047   XZ=              0.0000   YZ=             -0.0000
 Traceless Quadrupole moment (field-independent basis, Debye-Ang):
   XX=              0.4553   YY=             -3.6202   ZZ=              3.1649
   XY=             -1.7047   XZ=              0.0000   YZ=             -0.0000
 Octapole moment (field-independent basis, Debye-Ang**2):
  XXX=              0.0000  YYY=             -0.0000  ZZZ=              1.2853  XYY=              0.0000
  XXY=              0.0000  XXZ=              2.0808  XZZ=              0.0000  YZZ=              0.0000
  YYZ=             -1.6090  XYZ=              0.8696
 Hexadecapole moment (field-independent basis, Debye-Ang**3):
 XXXX=           -154.9560 YYYY=           -425.8615 ZZZZ=           -150.8852 XXXY=            -90.7225
 XXXZ=              0.0000 YYYX=            -87.8442 YYYZ=              0.0000 ZZZX=              0.0000
 ZZZY=              0.0000 XXYY=            -99.9926 XXZZ=            -52.1284 YYZZ=            -84.8499
 XXYZ=              0.0000 YYXZ=              0.0000 ZZXY=            -24.0822
 N-N= 2.046308148231D+02 E-N=-2.779554252507D+03  KE= 9.964794820643D+02
 Symmetry A    KE= 4.992332228669D+02
 Symmetry B    KE= 4.972462591974D+02
 R6APFD:  NTU= -4 IXU= 1 FactS= 1.050
 Calling FoFJK, ICntrl=      2127 FMM=F ISym2X=1 I1Cent= 0 IOpClX= 0 NMat=1 NMatS=1 NMatT=0.
 ***** Axes restored to original set *****
 -------------------------------------------------------------------
 Center     Atomic                   Forces (Hartrees/Bohr)
 Number     Number              X              Y              Z
 -------------------------------------------------------------------
      1       17          -0.004942968   -0.001019662    0.000099302
      2        6           0.003888188   -0.000735882   -0.003686969
      3        6          -0.001998103    0.004704370   -0.001769111
      4       17           0.003870220   -0.001232718    0.002997384
      5        1          -0.001137733    0.000651157    0.001644603
      6        1           0.000012739   -0.000224188    0.000221610
      7        1          -0.000172503   -0.000111258    0.000239578
      8        1           0.000480160   -0.002031820    0.000253602
 -------------------------------------------------------------------
 Cartesian Forces:  Max     0.004942968 RMS     0.002222207

 GradGradGradGradGradGradGradGradGradGradGradGradGradGradGradGradGradGrad
 Berny optimization.
 FormGI is forming the generalized inverse of G from B-inverse, IUseBI=4.
 Internal  Forces:  Max     0.012431964 RMS     0.003999870
 Search for a local minimum.
 Step number   1 out of a maximum of   38
 All quantities printed in internal units (Hartrees-Bohrs-Radians)
 Mixed Optimization -- RFO/linear search
 Second derivative matrix not updated -- first step.
 ITU=  0
     Eigenvalues ---    0.00654   0.05798   0.05798   0.05942   0.05942
     Eigenvalues ---    0.16000   0.16000   0.16000   0.16000   0.22300
     Eigenvalues ---    0.22300   0.26540   0.26540   0.31505   0.34980
     Eigenvalues ---    0.34980   0.34980   0.34980
 RFO step:  Lambda=-2.22649202D-03 EMin= 6.53942583D-03
 Linear search not attempted -- first point.
 Iteration  1 RMS(Cart)=  0.05335089 RMS(Int)=  0.00156015
 Iteration  2 RMS(Cart)=  0.00147036 RMS(Int)=  0.00031479
 Iteration  3 RMS(Cart)=  0.00000063 RMS(Int)=  0.00031479
 ClnCor:  largest displacement from symmetrization is 1.59D-12 for atom     7.
 Variable       Old X    -DE/DX   Delta X   Delta X   Delta X     New X
                                 (Linear)    (Quad)   (Total)
    R1        3.39145  -0.00010   0.00000  -0.00037  -0.00037   3.39108
    R2        2.85059   0.00172   0.00000   0.00542   0.00542   2.85601
    R3        2.05708   0.00007   0.00000   0.00019   0.00019   2.05726
    R4        2.05708   0.00150   0.00000   0.00425   0.00425   2.06133
    R5        3.39145  -0.00010   0.00000  -0.00037  -0.00037   3.39108
    R6        2.05708   0.00150   0.00000   0.00425   0.00425   2.06133
    R7        2.05708   0.00007   0.00000   0.00019   0.00019   2.05726
    A1        1.90428   0.01243   0.00000   0.05882   0.05873   1.96301
    A2        1.87133  -0.00389   0.00000  -0.00159  -0.00220   1.86912
    A3        1.87133  -0.00448   0.00000  -0.02134  -0.02086   1.85046
    A4        1.95040  -0.00117   0.00000  -0.00252  -0.00303   1.94737
    A5        1.95040  -0.00402   0.00000  -0.02798  -0.02790   1.92250
    A6        1.91269   0.00108   0.00000  -0.00453  -0.00486   1.90783
    A7        1.90428   0.01243   0.00000   0.05882   0.05873   1.96301
    A8        1.95040  -0.00402   0.00000  -0.02798  -0.02790   1.92250
    A9        1.95040  -0.00117   0.00000  -0.00252  -0.00303   1.94737
   A10        1.87133  -0.00448   0.00000  -0.02134  -0.02086   1.85046
   A11        1.87133  -0.00389   0.00000  -0.00159  -0.00220   1.86912
   A12        1.91269   0.00108   0.00000  -0.00453  -0.00486   1.90783
    D1        1.20428   0.00175   0.00000   0.03911   0.03969   1.24396
    D2       -3.01258   0.00173   0.00000   0.03335   0.03343  -2.97915
    D3       -0.86205  -0.00069   0.00000   0.00492   0.00513  -0.85692
    D4       -0.86205  -0.00069   0.00000   0.00492   0.00513  -0.85692
    D5        1.20428  -0.00071   0.00000  -0.00084  -0.00113   1.20315
    D6       -2.92838  -0.00314   0.00000  -0.02927  -0.02943  -2.95781
    D7       -3.01258   0.00173   0.00000   0.03335   0.03343  -2.97915
    D8       -0.94625   0.00171   0.00000   0.02759   0.02717  -0.91908
    D9        1.20428  -0.00071   0.00000  -0.00084  -0.00113   1.20315
         Item               Value     Threshold  Converged?
 Maximum Force            0.012432     0.000450     NO 
 RMS     Force            0.004000     0.000300     NO 
 Maximum Displacement     0.164060     0.001800     NO 
 RMS     Displacement     0.052958     0.001200     NO 
 Predicted change in Energy=-1.134306D-03
 GradGradGradGradGradGradGradGradGradGradGradGradGradGradGradGradGradGrad

                          Input orientation:                          
 ---------------------------------------------------------------------
 Center     Atomic      Atomic             Coordinates (Angstroms)
 Number     Number       Type             X           Y           Z
 ---------------------------------------------------------------------
      1         17           0       -0.086817   -0.035606   -0.018361
      2          6           0        0.005954    0.004101    1.773280
      3          6           0        1.430519    0.019225    2.277776
      4         17           0        2.250401    1.585598    1.970479
      5          1           0        1.447719   -0.122574    3.359194
      6          1           0        2.031395   -0.754894    1.803578
      7          1           0       -0.544800    0.883456    2.102794
      8          1           0       -0.506426   -0.893798    2.121291
 ---------------------------------------------------------------------
                    Distance matrix (angstroms):
                    1          2          3          4          5
     1  Cl   0.000000
     2  C    1.794481   0.000000
     3  C    2.752737   1.511334   0.000000
     4  Cl   3.470788   2.752737   1.794481   0.000000
     5  H    3.710827   2.147057   1.090811   2.343219   0.000000
     6  H    2.885075   2.163193   1.088657   2.356633   1.777765
     7  H    2.356633   1.088657   2.163193   2.885075   2.561400
     8  H    2.343219   1.090811   2.147057   3.710827   2.438416
                    6          7          8
     6  H    0.000000
     7  H    3.067654   0.000000
     8  H    2.561400   1.777765   0.000000
 Stoichiometry    C2H4Cl2
 Framework group  C2[X(C2H4Cl2)]
 Deg. of freedom    10
 Full point group                 C2      NOp   2
 Largest Abelian subgroup         C2      NOp   2
 Largest concise Abelian subgroup C2      NOp   2
                         Standard orientation:                         
 ---------------------------------------------------------------------
 Center     Atomic      Atomic             Coordinates (Angstroms)
 Number     Number       Type             X           Y           Z
 ---------------------------------------------------------------------
      1         17           0        0.616178    1.622318   -0.464253
      2          6           0        0.616178    0.437445    0.883425
      3          6           0       -0.616178   -0.437445    0.883425
      4         17           0       -0.616178   -1.622318   -0.464253
      5          1           0       -0.659662   -1.025336    1.801227
      6          1           0       -1.526195    0.152820    0.790526
      7          1           0        1.526195   -0.152820    0.790526
      8          1           0        0.659662    1.025336    1.801227
 ---------------------------------------------------------------------
 Rotational constants (GHZ):          10.1644577           2.1777299           1.9084708
 Standard basis: 6-311+G(2d,p) (5D, 7F)
 There are    78 symmetry adapted cartesian basis functions of A   symmetry.
 There are    78 symmetry adapted cartesian basis functions of B   symmetry.
 There are    74 symmetry adapted basis functions of A   symmetry.
 There are    74 symmetry adapted basis functions of B   symmetry.
   148 basis functions,   234 primitive gaussians,   156 cartesian basis functions
    25 alpha electrons       25 beta electrons
       nuclear repulsion energy       201.3852314823 Hartrees.
 NAtoms=    8 NActive=    8 NUniq=    4 SFac= 4.00D+00 NAtFMM=   60 NAOKFM=F Big=F
 Integral buffers will be    131072 words long.
 Raffenetti 2 integral format.
 Two-electron integral symmetry is turned on.
 R6APFD:  NTU= -4 IXU= 1 FactS= 1.050
 Nuclear repulsion after empirical dispersion term =      201.3825675609 Hartrees.
 One-electron integrals computed using PRISM.
 NBasis=   148 RedAO= T EigKep=  1.33D-04  NBF=    74    74
 NBsUse=   148 1.00D-06 EigRej= -1.00D+00 NBFU=    74    74
 Initial guess from the checkpoint file:  "output.chk"
 B after Tr=     0.000000    0.000000    0.000000
         Rot=    0.999784   -0.000000   -0.000000   -0.020798 Ang=  -2.38 deg.
 Initial guess orbital symmetries:
       Occupied  (A) (B) (A) (B) (A) (B) (B) (A) (A) (B) (B) (A)
                 (A) (B) (A) (B) (B) (A) (A) (A) (B) (B) (A) (A)
                 (B)
       Virtual   (A) (B) (A) (B) (B) (A) (B) (A) (A) (A) (B) (B)
                 (A) (B) (A) (B) (A) (B) (A) (B) (B) (B) (A) (A)
                 (B) (A) (B) (A) (B) (A) (A) (B) (B) (A) (B) (A)
                 (A) (B) (A) (B) (B) (A) (B) (A) (B) (A) (B) (B)
                 (A) (A) (A) (B) (B) (A) (B) (B) (A) (A) (B) (B)
                 (A) (B) (A) (A) (B) (B) (A) (B) (A) (B) (A) (A)
                 (B) (A) (B) (B) (A) (A) (B) (A) (B) (A) (B) (B)
                 (A) (B) (A) (B) (A) (B) (A) (A) (B) (A) (B) (A)
                 (A) (B) (A) (B) (A) (B) (A) (B) (B) (A) (B) (A)
                 (A) (B) (B) (B) (A) (B) (A) (A) (B) (B) (A) (B)
                 (A) (B) (A)
 ExpMin= 4.38D-02 ExpMax= 1.06D+05 ExpMxC= 3.62D+03 IAcc=3 IRadAn=         5 AccDes= 0.00D+00
 Harris functional with IExCor= 3731 and IRadAn=       5 diagonalized for initial guess.
 HarFok:  IExCor= 3731 AccDes= 0.00D+00 IRadAn=         5 IDoV= 1 UseB2=F ITyADJ=14
 ICtDFT=  3500011 ScaDFX=  1.000000  1.000000  1.000000  1.000000
 FoFCou: FMM=F IPFlag=           0 FMFlag=      100000 FMFlg1=           0
         NFxFlg=           0 DoJE=T BraDBF=F KetDBF=T FulRan=T
         wScrn=  0.000000 ICntrl=       500 IOpCl=  0 I1Cent=   200000004 NGrid=           0
         NMat0=    1 NMatS0=      1 NMatT0=    0 NMatD0=    1 NMtDS0=    0 NMtDT0=    0
 Petite list used in FoFCou.
 Keep R1 ints in memory in symmetry-blocked form, NReq=91216533.
 Requested convergence on RMS density matrix=1.00D-08 within 128 cycles.
 Requested convergence on MAX density matrix=1.00D-06.
 Requested convergence on             energy=1.00D-06.
 No special actions if energy rises.
 SCF Done:  E(RAPFD) =  -998.794902246     A.U. after    9 cycles
            NFock=  9  Conv=0.82D-08     -V/T= 2.0024
 R6APFD:  NTU= -4 IXU= 1 FactS= 1.050
 Calling FoFJK, ICntrl=      2127 FMM=F ISym2X=1 I1Cent= 0 IOpClX= 0 NMat=1 NMatS=1 NMatT=0.
 ***** Axes restored to original set *****
 -------------------------------------------------------------------
 Center     Atomic                   Forces (Hartrees/Bohr)
 Number     Number              X              Y              Z
 -------------------------------------------------------------------
      1       17          -0.000172387    0.000770507    0.000920279
      2        6           0.001148123   -0.000556133   -0.001077125
      3        6          -0.000698422    0.001500342   -0.000221021
      4       17          -0.000003891   -0.001140628   -0.000411418
      5        1          -0.001161255   -0.000323185    0.000159131
      6        1           0.000220292   -0.000029312   -0.000090703
      7        1          -0.000159078    0.000157838   -0.000086000
      8        1           0.000826619   -0.000379428    0.000806858
 -------------------------------------------------------------------
 Cartesian Forces:  Max     0.001500342 RMS     0.000694855

 GradGradGradGradGradGradGradGradGradGradGradGradGradGradGradGradGradGrad
 Berny optimization.
 Using GEDIIS/GDIIS optimizer.
 FormGI is forming the generalized inverse of G from B-inverse, IUseBI=4.
 Internal  Forces:  Max     0.001737132 RMS     0.000751477
 Search for a local minimum.
 Step number   2 out of a maximum of   38
 All quantities printed in internal units (Hartrees-Bohrs-Radians)
 Mixed Optimization -- En-DIIS/RFO-DIIS
 Update second derivatives using D2CorX and points    1    2
 DE= -1.05D-03 DEPred=-1.13D-03 R= 9.29D-01
 TightC=F SS=  1.41D+00  RLast= 1.22D-01 DXNew= 5.0454D-01 3.6663D-01
 Trust test= 9.29D-01 RLast= 1.22D-01 DXMaxT set to 3.67D-01
 ITU=  1  0
 Use linear search instead of GDIIS.
     Eigenvalues ---    0.00668   0.05598   0.05781   0.05927   0.05952
     Eigenvalues ---    0.14638   0.16000   0.16000   0.16000   0.21740
     Eigenvalues ---    0.22303   0.26540   0.26829   0.32218   0.34944
     Eigenvalues ---    0.34980   0.34980   0.34999
 RFO step:  Lambda=-1.28227881D-04 EMin= 6.68364822D-03
 Quartic linear search produced a step of  0.09176.
 Iteration  1 RMS(Cart)=  0.01637231 RMS(Int)=  0.00014248
 Iteration  2 RMS(Cart)=  0.00016617 RMS(Int)=  0.00004810
 Iteration  3 RMS(Cart)=  0.00000002 RMS(Int)=  0.00004810
 ClnCor:  largest displacement from symmetrization is 5.30D-13 for atom     4.
 Variable       Old X    -DE/DX   Delta X   Delta X   Delta X     New X
                                 (Linear)    (Quad)   (Total)
    R1        3.39108  -0.00093  -0.00003  -0.00380  -0.00384   3.38724
    R2        2.85601  -0.00174   0.00050  -0.00608  -0.00558   2.85042
    R3        2.05726   0.00018   0.00002   0.00056   0.00058   2.05785
    R4        2.06133   0.00018   0.00039   0.00051   0.00090   2.06223
    R5        3.39108  -0.00093  -0.00003  -0.00380  -0.00384   3.38724
    R6        2.06133   0.00018   0.00039   0.00051   0.00090   2.06223
    R7        2.05726   0.00018   0.00002   0.00056   0.00058   2.05785
    A1        1.96301   0.00081   0.00539   0.00454   0.00994   1.97294
    A2        1.86912  -0.00065  -0.00020  -0.00384  -0.00411   1.86501
    A3        1.85046   0.00085  -0.00191   0.00981   0.00798   1.85845
    A4        1.94737   0.00018  -0.00028  -0.00005  -0.00041   1.94696
    A5        1.92250  -0.00168  -0.00256  -0.01086  -0.01341   1.90909
    A6        1.90783   0.00056  -0.00045   0.00106   0.00053   1.90837
    A7        1.96301   0.00081   0.00539   0.00454   0.00994   1.97294
    A8        1.92250  -0.00168  -0.00256  -0.01086  -0.01341   1.90909
    A9        1.94737   0.00018  -0.00028  -0.00005  -0.00041   1.94696
   A10        1.85046   0.00085  -0.00191   0.00981   0.00798   1.85845
   A11        1.86912  -0.00065  -0.00020  -0.00384  -0.00411   1.86501
   A12        1.90783   0.00056  -0.00045   0.00106   0.00053   1.90837
    D1        1.24396  -0.00059   0.00364  -0.02973  -0.02601   1.21795
    D2       -2.97915  -0.00013   0.00307  -0.02173  -0.01867  -2.99782
    D3       -0.85692  -0.00045   0.00047  -0.02792  -0.02741  -0.88433
    D4       -0.85692  -0.00045   0.00047  -0.02792  -0.02741  -0.88433
    D5        1.20315   0.00001  -0.00010  -0.01992  -0.02006   1.18308
    D6       -2.95781  -0.00031  -0.00270  -0.02611  -0.02880  -2.98661
    D7       -2.97915  -0.00013   0.00307  -0.02173  -0.01867  -2.99782
    D8       -0.91908   0.00034   0.00249  -0.01373  -0.01133  -0.93041
    D9        1.20315   0.00001  -0.00010  -0.01992  -0.02006   1.18308
         Item               Value     Threshold  Converged?
 Maximum Force            0.001737     0.000450     NO 
 RMS     Force            0.000751     0.000300     NO 
 Maximum Displacement     0.035828     0.001800     NO 
 RMS     Displacement     0.016403     0.001200     NO 
 Predicted change in Energy=-7.481532D-05
 GradGradGradGradGradGradGradGradGradGradGradGradGradGradGradGradGradGrad

                          Input orientation:                          
 ---------------------------------------------------------------------
 Center     Atomic      Atomic             Coordinates (Angstroms)
 Number     Number       Type             X           Y           Z
 ---------------------------------------------------------------------
      1         17           0       -0.096935   -0.018048   -0.019532
      2          6           0        0.008821    0.002838    1.769673
      3          6           0        1.429200    0.023736    2.276918
      4         17           0        2.264903    1.577247    1.958992
      5          1           0        1.429100   -0.111826    3.359751
      6          1           0        2.030285   -0.758384    1.815583
      7          1           0       -0.549962    0.873778    2.108894
      8          1           0       -0.487467   -0.903831    2.119751
 ---------------------------------------------------------------------
                    Distance matrix (angstroms):
                    1          2          3          4          5
     1  Cl   0.000000
     2  C    1.792449   0.000000
     3  C    2.757628   1.508380   0.000000
     4  Cl   3.469553   2.757628   1.792449   0.000000
     5  H    3.709061   2.135109   1.091286   2.348118   0.000000
     6  H    2.905306   2.160528   1.088965   2.351762   1.778741
     7  H    2.351762   1.088965   2.160528   2.905306   2.540225
     8  H    2.348118   1.091286   2.135109   3.709061   2.416217
                    6          7          8
     6  H    0.000000
     7  H    3.067190   0.000000
     8  H    2.540225   1.778741   0.000000
 Stoichiometry    C2H4Cl2
 Framework group  C2[X(C2H4Cl2)]
 Deg. of freedom    10
 Full point group                 C2      NOp   2
 Largest Abelian subgroup         C2      NOp   2
 Largest concise Abelian subgroup C2      NOp   2
                         Standard orientation:                         
 ---------------------------------------------------------------------
 Center     Atomic      Atomic             Coordinates (Angstroms)
 Number     Number       Type             X           Y           Z
 ---------------------------------------------------------------------
      1         17           0        0.605222    1.625778   -0.466605
      2          6           0        0.605222    0.450009    0.886333
      3          6           0       -0.605222   -0.450009    0.886333
      4         17           0       -0.605222   -1.625778   -0.466605
      5          1           0       -0.620303   -1.036701    1.806371
      6          1           0       -1.528764    0.121626    0.807926
      7          1           0        1.528764   -0.121626    0.807926
      8          1           0        0.620303    1.036701    1.806371
 ---------------------------------------------------------------------
 Rotational constants (GHZ):          10.1443635           2.1801639           1.9058046
 Standard basis: 6-311+G(2d,p) (5D, 7F)
 There are    78 symmetry adapted cartesian basis functions of A   symmetry.
 There are    78 symmetry adapted cartesian basis functions of B   symmetry.
 There are    74 symmetry adapted basis functions of A   symmetry.
 There are    74 symmetry adapted basis functions of B   symmetry.
   148 basis functions,   234 primitive gaussians,   156 cartesian basis functions
    25 alpha electrons       25 beta electrons
       nuclear repulsion energy       201.4040178463 Hartrees.
 NAtoms=    8 NActive=    8 NUniq=    4 SFac= 4.00D+00 NAtFMM=   60 NAOKFM=F Big=F
 Integral buffers will be    131072 words long.
 Raffenetti 2 integral format.
 Two-electron integral symmetry is turned on.
 R6APFD:  NTU= -4 IXU= 1 FactS= 1.050
 Nuclear repulsion after empirical dispersion term =      201.4013426386 Hartrees.
 One-electron integrals computed using PRISM.
 NBasis=   148 RedAO= T EigKep=  1.31D-04  NBF=    74    74
 NBsUse=   148 1.00D-06 EigRej= -1.00D+00 NBFU=    74    74
 Initial guess from the checkpoint file:  "output.chk"
 B after Tr=     0.000000   -0.000000    0.000000
         Rot=    0.999990   -0.000000   -0.000000   -0.004360 Ang=  -0.50 deg.
 Initial guess orbital symmetries:
       Occupied  (A) (B) (A) (B) (A) (B) (B) (A) (A) (B) (A) (B)
                 (A) (B) (A) (B) (B) (A) (A) (A) (B) (B) (A) (A)
                 (B)
       Virtual   (A) (B) (A) (B) (B) (A) (B) (A) (A) (A) (B) (B)
                 (A) (B) (A) (B) (A) (B) (A) (B) (B) (B) (A) (A)
                 (B) (A) (B) (B) (A) (A) (A) (B) (B) (A) (B) (A)
                 (A) (B) (A) (B) (B) (A) (B) (A) (B) (B) (A) (B)
                 (A) (A) (A) (B) (B) (A) (B) (B) (A) (A) (B) (B)
                 (A) (B) (A) (A) (B) (B) (A) (B) (A) (B) (A) (A)
                 (B) (A) (B) (A) (B) (B) (A) (B) (A) (A) (B) (B)
                 (A) (B) (A) (B) (A) (A) (B) (A) (B) (A) (B) (A)
                 (A) (B) (A) (B) (A) (A) (B) (B) (A) (B) (B) (A)
                 (A) (B) (B) (B) (A) (B) (A) (A) (B) (A) (B) (B)
                 (A) (B) (A)
 ExpMin= 4.38D-02 ExpMax= 1.06D+05 ExpMxC= 3.62D+03 IAcc=3 IRadAn=         5 AccDes= 0.00D+00
 Harris functional with IExCor= 3731 and IRadAn=       5 diagonalized for initial guess.
 HarFok:  IExCor= 3731 AccDes= 0.00D+00 IRadAn=         5 IDoV= 1 UseB2=F ITyADJ=14
 ICtDFT=  3500011 ScaDFX=  1.000000  1.000000  1.000000  1.000000
 FoFCou: FMM=F IPFlag=           0 FMFlag=      100000 FMFlg1=           0
         NFxFlg=           0 DoJE=T BraDBF=F KetDBF=T FulRan=T
         wScrn=  0.000000 ICntrl=       500 IOpCl=  0 I1Cent=   200000004 NGrid=           0
         NMat0=    1 NMatS0=      1 NMatT0=    0 NMatD0=    1 NMtDS0=    0 NMtDT0=    0
 Petite list used in FoFCou.
 Keep R1 ints in memory in symmetry-blocked form, NReq=91216533.
 Requested convergence on RMS density matrix=1.00D-08 within 128 cycles.
 Requested convergence on MAX density matrix=1.00D-06.
 Requested convergence on             energy=1.00D-06.
 No special actions if energy rises.
 SCF Done:  E(RAPFD) =  -998.794989911     A.U. after    9 cycles
            NFock=  9  Conv=0.18D-08     -V/T= 2.0023
 R6APFD:  NTU= -4 IXU= 1 FactS= 1.050
 Calling FoFJK, ICntrl=      2127 FMM=F ISym2X=1 I1Cent= 0 IOpClX= 0 NMat=1 NMatS=1 NMatT=0.
 ***** Axes restored to original set *****
 -------------------------------------------------------------------
 Center     Atomic                   Forces (Hartrees/Bohr)
 Number     Number              X              Y              Z
 -------------------------------------------------------------------
      1       17           0.000131593    0.000199449    0.000487036
      2        6          -0.000312394    0.000118728   -0.000515606
      3        6           0.000519837    0.000316827   -0.000083218
      4       17          -0.000256115   -0.000460901   -0.000127579
      5        1          -0.000103237    0.000099978    0.000047557
      6        1           0.000069220   -0.000128411    0.000117341
      7        1          -0.000147687   -0.000036341    0.000109167
      8        1           0.000098783   -0.000109330   -0.000034700
 -------------------------------------------------------------------
 Cartesian Forces:  Max     0.000519837 RMS     0.000246611

 GradGradGradGradGradGradGradGradGradGradGradGradGradGradGradGradGradGrad
 Berny optimization.
 Using GEDIIS/GDIIS optimizer.
 FormGI is forming the generalized inverse of G from B-inverse, IUseBI=4.
 Internal  Forces:  Max     0.000496251 RMS     0.000185992
 Search for a local minimum.
 Step number   3 out of a maximum of   38
 All quantities printed in internal units (Hartrees-Bohrs-Radians)
 Mixed Optimization -- En-DIIS/RFO-DIIS
 Swapping is turned off.
 Update second derivatives using D2CorX and points    1    2    3
 DE= -8.77D-05 DEPred=-7.48D-05 R= 1.17D+00
 TightC=F SS=  1.41D+00  RLast= 7.36D-02 DXNew= 6.1660D-01 2.2089D-01
 Trust test= 1.17D+00 RLast= 7.36D-02 DXMaxT set to 3.67D-01
 ITU=  1  1  0
     Eigenvalues ---    0.00569   0.05550   0.05582   0.06003   0.06019
     Eigenvalues ---    0.14283   0.16000   0.16000   0.16051   0.22036
     Eigenvalues ---    0.22323   0.26540   0.26898   0.32950   0.34915
     Eigenvalues ---    0.34980   0.34980   0.34998
 En-DIIS/RFO-DIIS/Sim-DIIS IScMMF=       -3 using points:     3    2
 RFO step:  Lambda=-2.64205435D-05.
 DidBck=F Rises=F RFO-DIIS coefs:    1.80340   -0.80340
 Iteration  1 RMS(Cart)=  0.01165205 RMS(Int)=  0.00006266
 Iteration  2 RMS(Cart)=  0.00006573 RMS(Int)=  0.00001825
 Iteration  3 RMS(Cart)=  0.00000000 RMS(Int)=  0.00001825
 ClnCor:  largest displacement from symmetrization is 4.52D-13 for atom     7.
 Variable       Old X    -DE/DX   Delta X   Delta X   Delta X     New X
                                 (Linear)    (Quad)   (Total)
    R1        3.38724  -0.00050  -0.00308   0.00063  -0.00245   3.38479
    R2        2.85042   0.00020  -0.00448   0.00510   0.00061   2.85104
    R3        2.05785   0.00008   0.00047  -0.00015   0.00031   2.05816
    R4        2.06223   0.00003   0.00072  -0.00043   0.00030   2.06253
    R5        3.38724  -0.00050  -0.00308   0.00063  -0.00245   3.38479
    R6        2.06223   0.00003   0.00072  -0.00043   0.00030   2.06253
    R7        2.05785   0.00008   0.00047  -0.00015   0.00031   2.05816
    A1        1.97294  -0.00025   0.00798  -0.00690   0.00110   1.97404
    A2        1.86501   0.00000  -0.00330   0.00270  -0.00060   1.86441
    A3        1.85845   0.00020   0.00641  -0.00518   0.00127   1.85972
    A4        1.94696   0.00016  -0.00033   0.00125   0.00090   1.94786
    A5        1.90909  -0.00010  -0.01078   0.00839  -0.00238   1.90670
    A6        1.90837  -0.00001   0.00043  -0.00063  -0.00024   1.90813
    A7        1.97294  -0.00025   0.00798  -0.00690   0.00110   1.97404
    A8        1.90909  -0.00010  -0.01078   0.00839  -0.00238   1.90670
    A9        1.94696   0.00016  -0.00033   0.00125   0.00090   1.94786
   A10        1.85845   0.00020   0.00641  -0.00518   0.00127   1.85972
   A11        1.86501   0.00000  -0.00330   0.00270  -0.00060   1.86441
   A12        1.90837  -0.00001   0.00043  -0.00063  -0.00024   1.90813
    D1        1.21795  -0.00018  -0.02090  -0.00028  -0.02116   1.19679
    D2       -2.99782  -0.00015  -0.01500  -0.00548  -0.02048  -3.01831
    D3       -0.88433  -0.00012  -0.02202   0.00019  -0.02181  -0.90614
    D4       -0.88433  -0.00012  -0.02202   0.00019  -0.02181  -0.90614
    D5        1.18308  -0.00010  -0.01612  -0.00500  -0.02113   1.16195
    D6       -2.98661  -0.00006  -0.02314   0.00066  -0.02246  -3.00907
    D7       -2.99782  -0.00015  -0.01500  -0.00548  -0.02048  -3.01831
    D8       -0.93041  -0.00013  -0.00910  -0.01067  -0.01981  -0.95021
    D9        1.18308  -0.00010  -0.01612  -0.00500  -0.02113   1.16195
         Item               Value     Threshold  Converged?
 Maximum Force            0.000496     0.000450     NO 
 RMS     Force            0.000186     0.000300     YES
 Maximum Displacement     0.029173     0.001800     NO 
 RMS     Displacement     0.011650     0.001200     NO 
 Predicted change in Energy=-1.326407D-05
 GradGradGradGradGradGradGradGradGradGradGradGradGradGradGradGradGradGrad

                          Input orientation:                          
 ---------------------------------------------------------------------
 Center     Atomic      Atomic             Coordinates (Angstroms)
 Number     Number       Type             X           Y           Z
 ---------------------------------------------------------------------
      1         17           0       -0.097374   -0.002610   -0.018887
      2          6           0        0.008867    0.001752    1.769108
      3          6           0        1.429065    0.024638    2.277736
      4         17           0        2.269725    1.571011    1.945695
      5          1           0        1.424961   -0.100518    3.361971
      6          1           0        2.029510   -0.763856    1.826129
      7          1           0       -0.555403    0.866199    2.116291
      8          1           0       -0.481406   -0.911107    2.111988
 ---------------------------------------------------------------------
                    Distance matrix (angstroms):
                    1          2          3          4          5
     1  Cl   0.000000
     2  C    1.791153   0.000000
     3  C    2.757759   1.508704   0.000000
     4  Cl   3.455289   2.757759   1.791153   0.000000
     5  H    3.709082   2.133774   1.091443   2.348079   0.000000
     6  H    2.916713   2.161574   1.089130   2.350234   1.778851
     7  H    2.350234   1.089130   2.161574   2.916713   2.531423
     8  H    2.348079   1.091443   2.133774   3.709082   2.419452
                    6          7          8
     6  H    0.000000
     7  H    3.069698   0.000000
     8  H    2.531423   1.778851   0.000000
 Stoichiometry    C2H4Cl2
 Framework group  C2[X(C2H4Cl2)]
 Deg. of freedom    10
 Full point group                 C2      NOp   2
 Largest Abelian subgroup         C2      NOp   2
 Largest concise Abelian subgroup C2      NOp   2
                         Standard orientation:                         
 ---------------------------------------------------------------------
 Center     Atomic      Atomic             Coordinates (Angstroms)
 Number     Number       Type             X           Y           Z
 ---------------------------------------------------------------------
      1         17           0        0.601355    1.619608   -0.469562
      2          6           0        0.601355    0.455434    0.891661
      3          6           0       -0.601355   -0.455434    0.891661
      4         17           0       -0.601355   -1.619608   -0.469562
      5          1           0       -0.603572   -1.048398    1.807977
      6          1           0       -1.531050    0.107928    0.824613
      7          1           0        1.531050   -0.107928    0.824613
      8          1           0        0.603572    1.048398    1.807977
 ---------------------------------------------------------------------
 Rotational constants (GHZ):          10.0721129           2.1963232           1.9137300
 Standard basis: 6-311+G(2d,p) (5D, 7F)
 There are    78 symmetry adapted cartesian basis functions of A   symmetry.
 There are    78 symmetry adapted cartesian basis functions of B   symmetry.
 There are    74 symmetry adapted basis functions of A   symmetry.
 There are    74 symmetry adapted basis functions of B   symmetry.
   148 basis functions,   234 primitive gaussians,   156 cartesian basis functions
    25 alpha electrons       25 beta electrons
       nuclear repulsion energy       201.6055375258 Hartrees.
 NAtoms=    8 NActive=    8 NUniq=    4 SFac= 4.00D+00 NAtFMM=   60 NAOKFM=F Big=F
 Integral buffers will be    131072 words long.
 Raffenetti 2 integral format.
 Two-electron integral symmetry is turned on.
 R6APFD:  NTU= -4 IXU= 1 FactS= 1.050
 Nuclear repulsion after empirical dispersion term =      201.6028510260 Hartrees.
 One-electron integrals computed using PRISM.
 NBasis=   148 RedAO= T EigKep=  1.30D-04  NBF=    74    74
 NBsUse=   148 1.00D-06 EigRej= -1.00D+00 NBFU=    74    74
 Initial guess from the checkpoint file:  "output.chk"
 B after Tr=     0.000000    0.000000   -0.000000
         Rot=    0.999999    0.000000    0.000000   -0.001026 Ang=  -0.12 deg.
 Initial guess orbital symmetries:
       Occupied  (A) (B) (A) (B) (A) (B) (B) (A) (A) (B) (A) (B)
                 (A) (B) (A) (B) (B) (A) (A) (A) (B) (B) (A) (A)
                 (B)
       Virtual   (A) (A) (B) (B) (B) (A) (B) (A) (A) (A) (B) (B)
                 (A) (B) (A) (B) (A) (B) (A) (B) (B) (B) (A) (A)
                 (B) (A) (B) (B) (A) (A) (A) (B) (B) (A) (B) (A)
                 (A) (B) (A) (B) (B) (A) (B) (A) (B) (B) (A) (B)
                 (A) (A) (A) (B) (B) (A) (B) (B) (A) (A) (B) (A)
                 (B) (B) (A) (A) (B) (B) (A) (B) (A) (B) (A) (A)
                 (B) (A) (B) (A) (B) (A) (B) (B) (A) (A) (B) (A)
                 (B) (B) (A) (B) (A) (A) (B) (B) (A) (A) (B) (A)
                 (A) (B) (A) (B) (A) (B) (A) (B) (A) (B) (B) (A)
                 (A) (B) (B) (B) (A) (B) (A) (A) (B) (A) (B) (B)
                 (A) (B) (A)
 ExpMin= 4.38D-02 ExpMax= 1.06D+05 ExpMxC= 3.62D+03 IAcc=3 IRadAn=         5 AccDes= 0.00D+00
 Harris functional with IExCor= 3731 and IRadAn=       5 diagonalized for initial guess.
 HarFok:  IExCor= 3731 AccDes= 0.00D+00 IRadAn=         5 IDoV= 1 UseB2=F ITyADJ=14
 ICtDFT=  3500011 ScaDFX=  1.000000  1.000000  1.000000  1.000000
 FoFCou: FMM=F IPFlag=           0 FMFlag=      100000 FMFlg1=           0
         NFxFlg=           0 DoJE=T BraDBF=F KetDBF=T FulRan=T
         wScrn=  0.000000 ICntrl=       500 IOpCl=  0 I1Cent=   200000004 NGrid=           0
         NMat0=    1 NMatS0=      1 NMatT0=    0 NMatD0=    1 NMtDS0=    0 NMtDT0=    0
 Petite list used in FoFCou.
 Keep R1 ints in memory in symmetry-blocked form, NReq=91216533.
 Requested convergence on RMS density matrix=1.00D-08 within 128 cycles.
 Requested convergence on MAX density matrix=1.00D-06.
 Requested convergence on             energy=1.00D-06.
 No special actions if energy rises.
 SCF Done:  E(RAPFD) =  -998.795006519     A.U. after    8 cycles
            NFock=  8  Conv=0.52D-08     -V/T= 2.0023
 R6APFD:  NTU= -4 IXU= 1 FactS= 1.050
 Calling FoFJK, ICntrl=      2127 FMM=F ISym2X=1 I1Cent= 0 IOpClX= 0 NMat=1 NMatS=1 NMatT=0.
 ***** Axes restored to original set *****
 -------------------------------------------------------------------
 Center     Atomic                   Forces (Hartrees/Bohr)
 Number     Number              X              Y              Z
 -------------------------------------------------------------------
      1       17           0.000111622   -0.000006210    0.000073229
      2        6          -0.000225098    0.000096894   -0.000135100
      3        6           0.000278708    0.000015666   -0.000019654
      4       17          -0.000128041   -0.000028263   -0.000025834
      5        1           0.000021111    0.000072049   -0.000012045
      6        1          -0.000102110   -0.000093465    0.000056928
      7        1           0.000034768   -0.000047928    0.000137466
      8        1           0.000009040   -0.000008743   -0.000074991
 -------------------------------------------------------------------
 Cartesian Forces:  Max     0.000278708 RMS     0.000101798

 GradGradGradGradGradGradGradGradGradGradGradGradGradGradGradGradGradGrad
 Berny optimization.
 Using GEDIIS/GDIIS optimizer.
 FormGI is forming the generalized inverse of G from B-inverse, IUseBI=4.
 Internal  Forces:  Max     0.000240173 RMS     0.000092324
 Search for a local minimum.
 Step number   4 out of a maximum of   38
 All quantities printed in internal units (Hartrees-Bohrs-Radians)
 Mixed Optimization -- En-DIIS/RFO-DIIS
 Swapping is turned off.
 Update second derivatives using D2CorX and points    1    2    3    4
 DE= -1.66D-05 DEPred=-1.33D-05 R= 1.25D+00
 TightC=F SS=  1.41D+00  RLast= 6.37D-02 DXNew= 6.1660D-01 1.9117D-01
 Trust test= 1.25D+00 RLast= 6.37D-02 DXMaxT set to 3.67D-01
 ITU=  1  1  1  0
     Eigenvalues ---    0.00409   0.05542   0.05639   0.06029   0.06174
     Eigenvalues ---    0.15450   0.16000   0.16000   0.16787   0.21771
     Eigenvalues ---    0.22325   0.25870   0.26540   0.33468   0.34972
     Eigenvalues ---    0.34980   0.34980   0.34998
 En-DIIS/RFO-DIIS/Sim-DIIS IScMMF=       -3 using points:     4    3    2
 RFO step:  Lambda=-4.17919204D-06.
 DidBck=F Rises=F RFO-DIIS coefs:    1.53375   -0.62379    0.09004
 Iteration  1 RMS(Cart)=  0.00500439 RMS(Int)=  0.00001138
 Iteration  2 RMS(Cart)=  0.00001174 RMS(Int)=  0.00000241
 Iteration  3 RMS(Cart)=  0.00000000 RMS(Int)=  0.00000241
 ClnCor:  largest displacement from symmetrization is 5.08D-13 for atom     7.
 Variable       Old X    -DE/DX   Delta X   Delta X   Delta X     New X
                                 (Linear)    (Quad)   (Total)
    R1        3.38479  -0.00008  -0.00096   0.00038  -0.00058   3.38421
    R2        2.85104   0.00006   0.00083  -0.00056   0.00027   2.85131
    R3        2.05816  -0.00001   0.00011  -0.00014  -0.00003   2.05813
    R4        2.06253  -0.00002   0.00008  -0.00010  -0.00003   2.06250
    R5        3.38479  -0.00008  -0.00096   0.00038  -0.00058   3.38421
    R6        2.06253  -0.00002   0.00008  -0.00010  -0.00003   2.06250
    R7        2.05816  -0.00001   0.00011  -0.00014  -0.00003   2.05813
    A1        1.97404  -0.00024  -0.00031  -0.00056  -0.00087   1.97318
    A2        1.86441   0.00018   0.00005   0.00144   0.00149   1.86590
    A3        1.85972   0.00005  -0.00004  -0.00002  -0.00006   1.85965
    A4        1.94786  -0.00006   0.00052  -0.00101  -0.00049   1.94737
    A5        1.90670   0.00008  -0.00006   0.00002  -0.00004   1.90666
    A6        1.90813   0.00000  -0.00018   0.00020   0.00003   1.90815
    A7        1.97404  -0.00024  -0.00031  -0.00056  -0.00087   1.97318
    A8        1.90670   0.00008  -0.00006   0.00002  -0.00004   1.90666
    A9        1.94786  -0.00006   0.00052  -0.00101  -0.00049   1.94737
   A10        1.85972   0.00005  -0.00004  -0.00002  -0.00006   1.85965
   A11        1.86441   0.00018   0.00005   0.00144   0.00149   1.86590
   A12        1.90813   0.00000  -0.00018   0.00020   0.00003   1.90815
    D1        1.19679  -0.00001  -0.00895   0.00070  -0.00825   1.18854
    D2       -3.01831  -0.00004  -0.00925   0.00034  -0.00891  -3.02721
    D3       -0.90614  -0.00002  -0.00917  -0.00004  -0.00922  -0.91536
    D4       -0.90614  -0.00002  -0.00917  -0.00004  -0.00922  -0.91536
    D5        1.16195  -0.00005  -0.00947  -0.00040  -0.00987   1.15208
    D6       -3.00907  -0.00003  -0.00940  -0.00078  -0.01018  -3.01925
    D7       -3.01831  -0.00004  -0.00925   0.00034  -0.00891  -3.02721
    D8       -0.95021  -0.00007  -0.00955  -0.00002  -0.00956  -0.95978
    D9        1.16195  -0.00005  -0.00947  -0.00040  -0.00987   1.15208
         Item               Value     Threshold  Converged?
 Maximum Force            0.000240     0.000450     YES
 RMS     Force            0.000092     0.000300     YES
 Maximum Displacement     0.011739     0.001800     NO 
 RMS     Displacement     0.005005     0.001200     NO 
 Predicted change in Energy=-2.071763D-06
 GradGradGradGradGradGradGradGradGradGradGradGradGradGradGradGradGradGrad

                          Input orientation:                          
 ---------------------------------------------------------------------
 Center     Atomic      Atomic             Coordinates (Angstroms)
 Number     Number       Type             X           Y           Z
 ---------------------------------------------------------------------
      1         17           0       -0.095636    0.003602   -0.018625
      2          6           0        0.008774    0.001350    1.769173
      3          6           0        1.428995    0.024696    2.278144
      4         17           0        2.270029    1.569085    1.939541
      5          1           0        1.424374   -0.095466    3.362929
      6          1           0        2.028007   -0.767005    1.830298
      7          1           0       -0.556832    0.863190    2.120588
      8          1           0       -0.479764   -0.913941    2.107982
 ---------------------------------------------------------------------
                    Distance matrix (angstroms):
                    1          2          3          4          5
     1  Cl   0.000000
     2  C    1.790846   0.000000
     3  C    2.756826   1.508848   0.000000
     4  Cl   3.446958   2.756826   1.790846   0.000000
     5  H    3.708794   2.133859   1.091429   2.347742   0.000000
     6  H    2.919282   2.161344   1.089115   2.351133   1.778846
     7  H    2.351133   1.089115   2.161344   2.919282   2.527373
     8  H    2.347742   1.091429   2.133859   3.708794   2.422919
                    6          7          8
     6  H    0.000000
     7  H    3.069723   0.000000
     8  H    2.527373   1.778846   0.000000
 Stoichiometry    C2H4Cl2
 Framework group  C2[X(C2H4Cl2)]
 Deg. of freedom    10
 Full point group                 C2      NOp   2
 Largest Abelian subgroup         C2      NOp   2
 Largest concise Abelian subgroup C2      NOp   2
                         Standard orientation:                         
 ---------------------------------------------------------------------
 Center     Atomic      Atomic             Coordinates (Angstroms)
 Number     Number       Type             X           Y           Z
 ---------------------------------------------------------------------
      1         17           0        0.600606    1.615442   -0.470985
      2          6           0        0.600606    0.456540    0.894326
      3          6           0       -0.600606   -0.456540    0.894326
      4         17           0       -0.600606   -1.615442   -0.470985
      5          1           0       -0.599087   -1.052962    1.808381
      6          1           0       -1.531205    0.105887    0.832410
      7          1           0        1.531205   -0.105887    0.832410
      8          1           0        0.599087    1.052962    1.808381
 ---------------------------------------------------------------------
 Rotational constants (GHZ):          10.0324191           2.2058547           1.9189910
 Standard basis: 6-311+G(2d,p) (5D, 7F)
 There are    78 symmetry adapted cartesian basis functions of A   symmetry.
 There are    78 symmetry adapted cartesian basis functions of B   symmetry.
 There are    74 symmetry adapted basis functions of A   symmetry.
 There are    74 symmetry adapted basis functions of B   symmetry.
   148 basis functions,   234 primitive gaussians,   156 cartesian basis functions
    25 alpha electrons       25 beta electrons
       nuclear repulsion energy       201.7287284571 Hartrees.
 NAtoms=    8 NActive=    8 NUniq=    4 SFac= 4.00D+00 NAtFMM=   60 NAOKFM=F Big=F
 Integral buffers will be    131072 words long.
 Raffenetti 2 integral format.
 Two-electron integral symmetry is turned on.
 R6APFD:  NTU= -4 IXU= 1 FactS= 1.050
 Nuclear repulsion after empirical dispersion term =      201.7260417709 Hartrees.
 One-electron integrals computed using PRISM.
 NBasis=   148 RedAO= T EigKep=  1.30D-04  NBF=    74    74
 NBsUse=   148 1.00D-06 EigRej= -1.00D+00 NBFU=    74    74
 Initial guess from the checkpoint file:  "output.chk"
 B after Tr=    -0.000000   -0.000000    0.000000
         Rot=    1.000000    0.000000    0.000000    0.000046 Ang=   0.01 deg.
 Initial guess orbital symmetries:
       Occupied  (A) (B) (A) (B) (A) (B) (B) (A) (A) (B) (A) (B)
                 (A) (B) (A) (B) (B) (A) (A) (A) (B) (B) (A) (A)
                 (B)
       Virtual   (A) (A) (B) (B) (B) (A) (B) (A) (A) (A) (B) (B)
                 (A) (B) (A) (B) (A) (B) (A) (B) (B) (B) (A) (A)
                 (B) (A) (B) (B) (A) (A) (A) (B) (B) (A) (B) (A)
                 (A) (B) (A) (B) (B) (A) (B) (A) (B) (B) (A) (B)
                 (A) (A) (A) (B) (B) (A) (B) (A) (B) (A) (B) (A)
                 (B) (B) (A) (A) (B) (B) (A) (B) (A) (B) (A) (A)
                 (B) (A) (B) (A) (B) (B) (A) (A) (B) (A) (B) (A)
                 (B) (B) (A) (B) (A) (A) (B) (B) (A) (A) (B) (A)
                 (A) (B) (A) (B) (A) (B) (A) (B) (A) (B) (B) (A)
                 (A) (B) (B) (B) (A) (B) (A) (A) (B) (A) (B) (B)
                 (A) (B) (A)
 Keep R1 ints in memory in symmetry-blocked form, NReq=91216533.
 Requested convergence on RMS density matrix=1.00D-08 within 128 cycles.
 Requested convergence on MAX density matrix=1.00D-06.
 Requested convergence on             energy=1.00D-06.
 No special actions if energy rises.
 SCF Done:  E(RAPFD) =  -998.795008786     A.U. after    7 cycles
            NFock=  7  Conv=0.93D-08     -V/T= 2.0023
 R6APFD:  NTU= -4 IXU= 1 FactS= 1.050
 Calling FoFJK, ICntrl=      2127 FMM=F ISym2X=1 I1Cent= 0 IOpClX= 0 NMat=1 NMatS=1 NMatT=0.
 ***** Axes restored to original set *****
 -------------------------------------------------------------------
 Center     Atomic                   Forces (Hartrees/Bohr)
 Number     Number              X              Y              Z
 -------------------------------------------------------------------
      1       17           0.000007082   -0.000012098    0.000024755
      2        6          -0.000052159    0.000021256   -0.000017733
      3        6           0.000058514   -0.000007914   -0.000000611
      4       17          -0.000020149   -0.000015338    0.000012965
      5        1           0.000017088    0.000016283   -0.000001237
      6        1           0.000004735   -0.000004270    0.000001559
      7        1          -0.000006006    0.000001602    0.000002109
      8        1          -0.000009105    0.000000478   -0.000021807
 -------------------------------------------------------------------
 Cartesian Forces:  Max     0.000058514 RMS     0.000020203

 GradGradGradGradGradGradGradGradGradGradGradGradGradGradGradGradGradGrad
 Berny optimization.
 Using GEDIIS/GDIIS optimizer.
 FormGI is forming the generalized inverse of G from B-inverse, IUseBI=4.
 Internal  Forces:  Max     0.000060787 RMS     0.000017534
 Search for a local minimum.
 Step number   5 out of a maximum of   38
 All quantities printed in internal units (Hartrees-Bohrs-Radians)
 Mixed Optimization -- En-DIIS/RFO-DIIS
 Swapping is turned off.
 Update second derivatives using D2CorX and points    1    2    3    4    5
 DE= -2.27D-06 DEPred=-2.07D-06 R= 1.09D+00
 TightC=F SS=  1.41D+00  RLast= 2.82D-02 DXNew= 6.1660D-01 8.4519D-02
 Trust test= 1.09D+00 RLast= 2.82D-02 DXMaxT set to 3.67D-01
 ITU=  1  1  1  1  0
     Eigenvalues ---    0.00420   0.05547   0.05687   0.06033   0.06164
     Eigenvalues ---    0.14387   0.16000   0.16000   0.16382   0.21499
     Eigenvalues ---    0.22326   0.25697   0.26540   0.33523   0.34970
     Eigenvalues ---    0.34980   0.34980   0.35003
 En-DIIS/RFO-DIIS/Sim-DIIS IScMMF=       -3 using points:     5    4    3    2
 RFO step:  Lambda=-4.96944663D-08.
 DidBck=F Rises=F RFO-DIIS coefs:    0.98519    0.04255   -0.05241    0.02467
 Iteration  1 RMS(Cart)=  0.00020292 RMS(Int)=  0.00000070
 Iteration  2 RMS(Cart)=  0.00000003 RMS(Int)=  0.00000070
 ClnCor:  largest displacement from symmetrization is 2.79D-13 for atom     4.
 Variable       Old X    -DE/DX   Delta X   Delta X   Delta X     New X
                                 (Linear)    (Quad)   (Total)
    R1        3.38421  -0.00003   0.00004  -0.00010  -0.00007   3.38414
    R2        2.85131   0.00006   0.00015   0.00002   0.00017   2.85148
    R3        2.05813   0.00001  -0.00001   0.00001   0.00001   2.05814
    R4        2.06250  -0.00000  -0.00001  -0.00000  -0.00002   2.06249
    R5        3.38421  -0.00003   0.00004  -0.00010  -0.00007   3.38414
    R6        2.06250  -0.00000  -0.00001  -0.00000  -0.00002   2.06249
    R7        2.05813   0.00001  -0.00001   0.00001   0.00001   2.05814
    A1        1.97318  -0.00002  -0.00020   0.00002  -0.00019   1.97299
    A2        1.86590   0.00001   0.00006   0.00003   0.00009   1.86599
    A3        1.85965  -0.00001  -0.00016  -0.00003  -0.00020   1.85946
    A4        1.94737   0.00001   0.00004   0.00002   0.00007   1.94744
    A5        1.90666   0.00002   0.00027  -0.00008   0.00019   1.90684
    A6        1.90815  -0.00001  -0.00002   0.00005   0.00003   1.90819
    A7        1.97318  -0.00002  -0.00020   0.00002  -0.00019   1.97299
    A8        1.90666   0.00002   0.00027  -0.00008   0.00019   1.90684
    A9        1.94737   0.00001   0.00004   0.00002   0.00007   1.94744
   A10        1.85965  -0.00001  -0.00016  -0.00003  -0.00020   1.85946
   A11        1.86590   0.00001   0.00006   0.00003   0.00009   1.86599
   A12        1.90815  -0.00001  -0.00002   0.00005   0.00003   1.90819
    D1        1.18854   0.00001   0.00018   0.00010   0.00028   1.18881
    D2       -3.02721  -0.00000   0.00002   0.00002   0.00004  -3.02717
    D3       -0.91536   0.00001   0.00021   0.00004   0.00025  -0.91511
    D4       -0.91536   0.00001   0.00021   0.00004   0.00025  -0.91511
    D5        1.15208  -0.00001   0.00005  -0.00004   0.00001   1.15209
    D6       -3.01925   0.00001   0.00024  -0.00002   0.00022  -3.01903
    D7       -3.02721  -0.00000   0.00002   0.00002   0.00004  -3.02717
    D8       -0.95978  -0.00002  -0.00013  -0.00007  -0.00020  -0.95998
    D9        1.15208  -0.00001   0.00005  -0.00004   0.00001   1.15209
         Item               Value     Threshold  Converged?
 Maximum Force            0.000061     0.000450     YES
 RMS     Force            0.000018     0.000300     YES
 Maximum Displacement     0.000554     0.001800     YES
 RMS     Displacement     0.000203     0.001200     YES
 Predicted change in Energy=-2.466074D-08
 Optimization completed.
    -- Stationary point found.
                           ----------------------------
                           !   Optimized Parameters   !
                           ! (Angstroms and Degrees)  !
 --------------------------                            --------------------------
 ! Name  Definition              Value          Derivative Info.                !
 --------------------------------------------------------------------------------
 ! R1    R(1,2)                  1.7908         -DE/DX =    0.0                 !
 ! R2    R(2,3)                  1.5088         -DE/DX =    0.0001              !
 ! R3    R(2,7)                  1.0891         -DE/DX =    0.0                 !
 ! R4    R(2,8)                  1.0914         -DE/DX =    0.0                 !
 ! R5    R(3,4)                  1.7908         -DE/DX =    0.0                 !
 ! R6    R(3,5)                  1.0914         -DE/DX =    0.0                 !
 ! R7    R(3,6)                  1.0891         -DE/DX =    0.0                 !
 ! A1    A(1,2,3)              113.0546         -DE/DX =    0.0                 !
 ! A2    A(1,2,7)              106.9082         -DE/DX =    0.0                 !
 ! A3    A(1,2,8)              106.5502         -DE/DX =    0.0                 !
 ! A4    A(3,2,7)              111.5761         -DE/DX =    0.0                 !
 ! A5    A(3,2,8)              109.2434         -DE/DX =    0.0                 !
 ! A6    A(7,2,8)              109.3292         -DE/DX =    0.0                 !
 ! A7    A(2,3,4)              113.0546         -DE/DX =    0.0                 !
 ! A8    A(2,3,5)              109.2434         -DE/DX =    0.0                 !
 ! A9    A(2,3,6)              111.5761         -DE/DX =    0.0                 !
 ! A10   A(4,3,5)              106.5502         -DE/DX =    0.0                 !
 ! A11   A(4,3,6)              106.9082         -DE/DX =    0.0                 !
 ! A12   A(5,3,6)              109.3292         -DE/DX =    0.0                 !
 ! D1    D(1,2,3,4)             68.0981         -DE/DX =    0.0                 !
 ! D2    D(1,2,3,5)           -173.4466         -DE/DX =    0.0                 !
 ! D3    D(1,2,3,6)            -52.4461         -DE/DX =    0.0                 !
 ! D4    D(7,2,3,4)            -52.4461         -DE/DX =    0.0                 !
 ! D5    D(7,2,3,5)             66.0093         -DE/DX =    0.0                 !
 ! D6    D(7,2,3,6)           -172.9902         -DE/DX =    0.0                 !
 ! D7    D(8,2,3,4)           -173.4466         -DE/DX =    0.0                 !
 ! D8    D(8,2,3,5)            -54.9912         -DE/DX =    0.0                 !
 ! D9    D(8,2,3,6)             66.0093         -DE/DX =    0.0                 !
 --------------------------------------------------------------------------------
 GradGradGradGradGradGradGradGradGradGradGradGradGradGradGradGradGradGrad

                          Input orientation:                          
 ---------------------------------------------------------------------
 Center     Atomic      Atomic             Coordinates (Angstroms)
 Number     Number       Type             X           Y           Z
 ---------------------------------------------------------------------
      1         17           0       -0.095636    0.003602   -0.018625
      2          6           0        0.008774    0.001350    1.769173
      3          6           0        1.428995    0.024696    2.278144
      4         17           0        2.270029    1.569085    1.939541
      5          1           0        1.424374   -0.095466    3.362929
      6          1           0        2.028007   -0.767005    1.830298
      7          1           0       -0.556832    0.863190    2.120588
      8          1           0       -0.479764   -0.913941    2.107982
 ---------------------------------------------------------------------
                    Distance matrix (angstroms):
                    1          2          3          4          5
     1  Cl   0.000000
     2  C    1.790846   0.000000
     3  C    2.756826   1.508848   0.000000
     4  Cl   3.446958   2.756826   1.790846   0.000000
     5  H    3.708794   2.133859   1.091429   2.347742   0.000000
     6  H    2.919282   2.161344   1.089115   2.351133   1.778846
     7  H    2.351133   1.089115   2.161344   2.919282   2.527373
     8  H    2.347742   1.091429   2.133859   3.708794   2.422919
                    6          7          8
     6  H    0.000000
     7  H    3.069723   0.000000
     8  H    2.527373   1.778846   0.000000
 Stoichiometry    C2H4Cl2
 Framework group  C2[X(C2H4Cl2)]
 Deg. of freedom    10
 Full point group                 C2      NOp   2
 Largest Abelian subgroup         C2      NOp   2
 Largest concise Abelian subgroup C2      NOp   2
                         Standard orientation:                         
 ---------------------------------------------------------------------
 Center     Atomic      Atomic             Coordinates (Angstroms)
 Number     Number       Type             X           Y           Z
 ---------------------------------------------------------------------
      1         17           0        0.600606    1.615442   -0.470985
      2          6           0        0.600606    0.456540    0.894326
      3          6           0       -0.600606   -0.456540    0.894326
      4         17           0       -0.600606   -1.615442   -0.470985
      5          1           0       -0.599087   -1.052962    1.808381
      6          1           0       -1.531205    0.105887    0.832410
      7          1           0        1.531205   -0.105887    0.832410
      8          1           0        0.599087    1.052962    1.808381
 ---------------------------------------------------------------------
 Rotational constants (GHZ):          10.0324191           2.2058547           1.9189910

 **********************************************************************

            Population analysis using the SCF Density.

 **********************************************************************

 Orbital symmetries:
       Occupied  (A) (B) (A) (B) (A) (B) (B) (A) (A) (B) (A) (B)
                 (A) (B) (A) (B) (B) (A) (A) (A) (B) (B) (A) (A)
                 (B)
       Virtual   (A) (A) (B) (B) (B) (A) (B) (A) (A) (A) (B) (B)
                 (A) (B) (A) (B) (A) (B) (A) (B) (B) (B) (A) (A)
                 (B) (A) (B) (B) (A) (A) (A) (B) (B) (A) (B) (A)
                 (A) (B) (A) (B) (B) (A) (B) (A) (B) (B) (A) (B)
                 (A) (A) (A) (B) (B) (A) (B) (A) (B) (A) (B) (A)
                 (B) (B) (A) (A) (B) (B) (A) (B) (A) (B) (A) (A)
                 (B) (A) (B) (A) (B) (B) (A) (A) (B) (A) (B) (A)
                 (B) (B) (A) (B) (A) (A) (B) (B) (A) (A) (B) (A)
                 (A) (B) (A) (B) (A) (B) (A) (B) (A) (B) (B) (A)
                 (A) (B) (B) (B) (A) (B) (A) (A) (B) (B) (A) (B)
                 (A) (B) (A)
 The electronic state is 1-A.
 Alpha  occ. eigenvalues -- -101.64565-101.64565 -10.27696 -10.27668  -9.50676
 Alpha  occ. eigenvalues --   -9.50676  -7.25369  -7.25369  -7.24386  -7.24386
 Alpha  occ. eigenvalues --   -7.24367  -7.24367  -0.90812  -0.85972  -0.75207
 Alpha  occ. eigenvalues --   -0.64076  -0.50955  -0.49957  -0.45894  -0.41873
 Alpha  occ. eigenvalues --   -0.41119  -0.32625  -0.31974  -0.31282  -0.31049
 Alpha virt. eigenvalues --   -0.00663   0.01345   0.01586   0.03721   0.04271
 Alpha virt. eigenvalues --    0.04694   0.07892   0.08547   0.09198   0.09683
 Alpha virt. eigenvalues --    0.10142   0.11335   0.11686   0.12376   0.12590
 Alpha virt. eigenvalues --    0.13273   0.16448   0.18245   0.19272   0.20141
 Alpha virt. eigenvalues --    0.21907   0.23017   0.25334   0.36249   0.36751
 Alpha virt. eigenvalues --    0.38526   0.39378   0.40788   0.40798   0.42637
 Alpha virt. eigenvalues --    0.45022   0.45511   0.45944   0.47600   0.47861
 Alpha virt. eigenvalues --    0.48355   0.48949   0.49872   0.52164   0.55550
 Alpha virt. eigenvalues --    0.57061   0.60031   0.60916   0.65753   0.67051
 Alpha virt. eigenvalues --    0.71407   0.72465   0.74603   0.76564   0.78628
 Alpha virt. eigenvalues --    0.83078   0.88255   0.92660   0.96742   1.00328
 Alpha virt. eigenvalues --    1.12898   1.13283   1.18062   1.19039   1.24225
 Alpha virt. eigenvalues --    1.24523   1.29459   1.31165   1.60619   1.61566
 Alpha virt. eigenvalues --    1.74707   1.86673   1.92962   2.03034   2.07751
 Alpha virt. eigenvalues --    2.13263   2.23200   2.23828   2.27369   2.28772
 Alpha virt. eigenvalues --    2.35639   2.36520   2.37507   2.37573   2.38462
 Alpha virt. eigenvalues --    2.38605   2.42215   2.42990   2.45809   2.45877
 Alpha virt. eigenvalues --    2.52296   2.53423   2.55142   2.59608   2.64874
 Alpha virt. eigenvalues --    2.66005   2.74911   2.75318   2.81658   2.82731
 Alpha virt. eigenvalues --    3.14623   3.16146   3.23850   3.26594   3.33539
 Alpha virt. eigenvalues --    3.36687   3.42734   3.43051   3.48441   3.53258
 Alpha virt. eigenvalues --    3.53993   3.68462   3.82594   4.17220   4.19249
 Alpha virt. eigenvalues --    4.39779   9.77635   9.82181  23.86390  23.89380
 Alpha virt. eigenvalues --   25.94308  25.97382  26.00973  26.01333  26.88455
 Alpha virt. eigenvalues --   27.11426 215.89867 215.94863
          Condensed to atoms (all electrons):
               1          2          3          4          5          6
     1  Cl  16.868894   0.210997  -0.043124   0.028269   0.012746  -0.013851
     2  C    0.210997   5.261001   0.233920  -0.043124  -0.055702  -0.033079
     3  C   -0.043124   0.233920   5.261001   0.210997   0.392672   0.430816
     4  Cl   0.028269  -0.043124   0.210997  16.868894  -0.037206  -0.056995
     5  H    0.012746  -0.055702   0.392672  -0.037206   0.549079  -0.035600
     6  H   -0.013851  -0.033079   0.430816  -0.056995  -0.035600   0.517393
     7  H   -0.056995   0.430816  -0.033079  -0.013851  -0.003285   0.005239
     8  H   -0.037206   0.392672  -0.055702   0.012746  -0.000574  -0.003285
               7          8
     1  Cl  -0.056995  -0.037206
     2  C    0.430816   0.392672
     3  C   -0.033079  -0.055702
     4  Cl  -0.013851   0.012746
     5  H   -0.003285  -0.000574
     6  H    0.005239  -0.003285
     7  H    0.517393  -0.035600
     8  H   -0.035600   0.549079
 Mulliken charges:
               1
     1  Cl   0.030269
     2  C   -0.397500
     3  C   -0.397500
     4  Cl   0.030269
     5  H    0.177869
     6  H    0.189362
     7  H    0.189362
     8  H    0.177869
 Sum of Mulliken charges =  -0.00000
 Mulliken charges with hydrogens summed into heavy atoms:
               1
     1  Cl   0.030269
     2  C   -0.030269
     3  C   -0.030269
     4  Cl   0.030269
 Electronic spatial extent (au):  <R**2>=            587.7059
 Charge=             -0.0000 electrons
 Dipole moment (field-independent basis, Debye):
    X=              0.0000    Y=             -0.0000    Z=              2.7743  Tot=              2.7743
 Quadrupole moment (field-independent basis, Debye-Ang):
   XX=            -37.8943   YY=            -42.2174   ZZ=            -35.3503
   XY=             -1.4787   XZ=             -0.0000   YZ=             -0.0000
 Traceless Quadrupole moment (field-independent basis, Debye-Ang):
   XX=              0.5931   YY=             -3.7301   ZZ=              3.1370
   XY=             -1.4787   XZ=             -0.0000   YZ=             -0.0000
 Octapole moment (field-independent basis, Debye-Ang**2):
  XXX=              0.0000  YYY=             -0.0000  ZZZ=              1.4282  XYY=              0.0000
  XXY=              0.0000  XXZ=              1.7212  XZZ=             -0.0000  YZZ=              0.0000
  YYZ=             -1.7031  XYZ=              0.6121
 Hexadecapole moment (field-independent basis, Debye-Ang**3):
 XXXX=           -140.9676 YYYY=           -474.8546 ZZZZ=           -147.9961 XXXY=            -90.3108
 XXXZ=              0.0000 YYYX=            -87.8892 YYYZ=              0.0000 ZZZX=             -0.0000
 ZZZY=              0.0000 XXYY=           -106.7073 XXZZ=            -50.0722 YYZZ=            -91.8575
 XXYZ=             -0.0000 YYXZ=             -0.0000 ZZXY=            -24.9655
 N-N= 2.017260417709D+02 E-N=-2.773683042087D+03  KE= 9.964580971348D+02
 Symmetry A    KE= 4.992772116274D+02
 Symmetry B    KE= 4.971808855074D+02
 B after Tr=     0.066622   -0.060105   -0.023855
         Rot=    0.999889    0.004015    0.008429   -0.011589 Ang=   1.71 deg.
 Final structure in terms of initial Z-matrix:
 Cl
 C,1,B1
 C,2,B2,1,A1
 Cl,3,B3,2,A2,1,D1,0
 H,3,B4,4,A3,2,D2,0
 H,3,B5,4,A4,2,D3,0
 H,2,B6,1,A5,3,D4,0
 H,2,B7,1,A6,3,D5,0
      Variables:
 B1=1.79084562
 B2=1.50884832
 B3=1.79084562
 B4=1.09142905
 B5=1.08911516
 B6=1.08911516
 B7=1.09142905
 A1=113.05460752
 A2=113.05460752
 A3=106.55023838
 A4=106.90816409
 A5=106.90816409
 A6=106.55023838
 D1=68.09807514
 D2=-120.00965865
 D3=123.16738561
 D4=123.16738561
 D5=-120.00965865
 Unable to Open any file for archive entry.
 1\1\GINC-C0004\FOpt\RAPFD\6-311+G(2d,p)\C2H4Cl2\WEBMO\08-Sep-2026\0\\#
 N APFD/6-311+G(2d,p) Opt Freq=(Raman,hpmodes) Geom=Connectivity\\C2H4C
 l2\\0,1\Cl,-0.0956361685,0.0036018231,-0.0186246376\C,0.0087740106,0.0
 013495759,1.7691733003\C,1.4289946466,0.0246956726,2.2781443677\Cl,2.2
 700288279,1.5690846842,1.9395411904\H,1.4243743231,-0.0954662334,3.362
 9287437\H,2.0280066938,-0.7670051268,1.8302981477\H,-0.5568323901,0.86
 31900273,2.1205879571\H,-0.4797640719,-0.9139409819,2.1079816684\\Vers
 ion=ES64L-G16RevC.02\State=1-A\HF=-998.7950088\RMSD=9.294e-09\RMSF=2.0
 20e-05\Dipole=-0.2944453,-0.6182276,0.8499708\Quadrupole=-0.7385393,0.
 3363,0.4022393,-1.0032561,-1.7935127,-1.799336\PG=C02 [X(C2H4Cl2)]\\@
 The archive entry for this job was punched.


 LET US PLACE AT THE END OF EVERY CHAPTER.....THE
 TWO LETTERS USED BY THE ROMAN JUDGES WHEN THEY DID
 NOT UNDERSTAND A PLEADING.
 N. L. -NON LIQUET- IT IS NOT CLEAR.
                                              -- VOLTAIRE
 Job cpu time:       0 days  0 hours  3 minutes 37.6 seconds.
 Elapsed time:       0 days  0 hours  0 minutes 14.4 seconds.
 File lengths (MBytes):  RWF=     16 Int=      0 D2E=      0 Chk=      3 Scr=      1
 Normal termination of Gaussian 16 at Tue Sep  8 12:06:55 2026.
 Link1:  Proceeding to internal job step number  2.
 ----------------------------------------------------------------------
 #N Geom=AllCheck Guess=TCheck SCRF=Check GenChk RAPFD/6-311+G(2d,p) Fr
 eq
 ----------------------------------------------------------------------
 1/10=4,29=7,30=1,38=1,40=1/1,3;
 2/12=2,40=1/2;
 3/5=4,6=6,7=112,11=2,14=-4,25=1,30=1,70=2,71=2,74=-44,116=1,140=1/1,2,3;
 4/5=101/1;
 5/5=2,38=6,98=1/2;
 8/6=4,10=90,11=11/1;
 10/13=10,15=4/2;
 11/6=3,8=1,9=11,15=111,16=1/1,2,10;
 10/6=1/2;
 6/7=2,8=2,9=2,10=2,28=1/1;
 7/8=11,10=1,25=1/1,2,3,16;
 1/10=4,30=1/3;
 99//99;
 Structure from the checkpoint file:  "output.chk"
 -------
 C2H4Cl2
 -------
 Charge =  0 Multiplicity = 1
 Redundant internal coordinates found in file.  (old form).
 Cl,0,-0.0956361685,0.0036018231,-0.0186246376
 C,0,0.0087740106,0.0013495759,1.7691733003
 C,0,1.4289946466,0.0246956726,2.2781443677
 Cl,0,2.2700288279,1.5690846842,1.9395411904
 H,0,1.4243743231,-0.0954662334,3.3629287437
 H,0,2.0280066938,-0.7670051268,1.8302981477
 H,0,-0.5568323901,0.8631900273,2.1205879571
 H,0,-0.4797640719,-0.9139409819,2.1079816684
 Recover connectivity data from disk.

 GradGradGradGradGradGradGradGradGradGradGradGradGradGradGradGradGradGrad
 Berny optimization.
 Initialization pass.
                           ----------------------------
                           !    Initial Parameters    !
                           ! (Angstroms and Degrees)  !
 --------------------------                            --------------------------
 ! Name  Definition              Value          Derivative Info.                !
 --------------------------------------------------------------------------------
 ! R1    R(1,2)                  1.7908         calculate D2E/DX2 analytically  !
 ! R2    R(2,3)                  1.5088         calculate D2E/DX2 analytically  !
 ! R3    R(2,7)                  1.0891         calculate D2E/DX2 analytically  !
 ! R4    R(2,8)                  1.0914         calculate D2E/DX2 analytically  !
 ! R5    R(3,4)                  1.7908         calculate D2E/DX2 analytically  !
 ! R6    R(3,5)                  1.0914         calculate D2E/DX2 analytically  !
 ! R7    R(3,6)                  1.0891         calculate D2E/DX2 analytically  !
 ! A1    A(1,2,3)              113.0546         calculate D2E/DX2 analytically  !
 ! A2    A(1,2,7)              106.9082         calculate D2E/DX2 analytically  !
 ! A3    A(1,2,8)              106.5502         calculate D2E/DX2 analytically  !
 ! A4    A(3,2,7)              111.5761         calculate D2E/DX2 analytically  !
 ! A5    A(3,2,8)              109.2434         calculate D2E/DX2 analytically  !
 ! A6    A(7,2,8)              109.3292         calculate D2E/DX2 analytically  !
 ! A7    A(2,3,4)              113.0546         calculate D2E/DX2 analytically  !
 ! A8    A(2,3,5)              109.2434         calculate D2E/DX2 analytically  !
 ! A9    A(2,3,6)              111.5761         calculate D2E/DX2 analytically  !
 ! A10   A(4,3,5)              106.5502         calculate D2E/DX2 analytically  !
 ! A11   A(4,3,6)              106.9082         calculate D2E/DX2 analytically  !
 ! A12   A(5,3,6)              109.3292         calculate D2E/DX2 analytically  !
 ! D1    D(1,2,3,4)             68.0981         calculate D2E/DX2 analytically  !
 ! D2    D(1,2,3,5)           -173.4466         calculate D2E/DX2 analytically  !
 ! D3    D(1,2,3,6)            -52.4461         calculate D2E/DX2 analytically  !
 ! D4    D(7,2,3,4)            -52.4461         calculate D2E/DX2 analytically  !
 ! D5    D(7,2,3,5)             66.0093         calculate D2E/DX2 analytically  !
 ! D6    D(7,2,3,6)           -172.9902         calculate D2E/DX2 analytically  !
 ! D7    D(8,2,3,4)           -173.4466         calculate D2E/DX2 analytically  !
 ! D8    D(8,2,3,5)            -54.9912         calculate D2E/DX2 analytically  !
 ! D9    D(8,2,3,6)             66.0093         calculate D2E/DX2 analytically  !
 --------------------------------------------------------------------------------
 Trust Radius=3.00D-01 FncErr=1.00D-07 GrdErr=1.00D-07 EigMax=2.50D+02 EigMin=1.00D-04
 Number of steps in this run=      2 maximum allowed number of steps=      2.
 GradGradGradGradGradGradGradGradGradGradGradGradGradGradGradGradGradGrad

                          Input orientation:                          
 ---------------------------------------------------------------------
 Center     Atomic      Atomic             Coordinates (Angstroms)
 Number     Number       Type             X           Y           Z
 ---------------------------------------------------------------------
      1         17           0       -0.095636    0.003602   -0.018625
      2          6           0        0.008774    0.001350    1.769173
      3          6           0        1.428995    0.024696    2.278144
      4         17           0        2.270029    1.569085    1.939541
      5          1           0        1.424374   -0.095466    3.362929
      6          1           0        2.028007   -0.767005    1.830298
      7          1           0       -0.556832    0.863190    2.120588
      8          1           0       -0.479764   -0.913941    2.107982
 ---------------------------------------------------------------------
                    Distance matrix (angstroms):
                    1          2          3          4          5
     1  Cl   0.000000
     2  C    1.790846   0.000000
     3  C    2.756826   1.508848   0.000000
     4  Cl   3.446958   2.756826   1.790846   0.000000
     5  H    3.708794   2.133859   1.091429   2.347742   0.000000
     6  H    2.919282   2.161344   1.089115   2.351133   1.778846
     7  H    2.351133   1.089115   2.161344   2.919282   2.527373
     8  H    2.347742   1.091429   2.133859   3.708794   2.422919
                    6          7          8
     6  H    0.000000
     7  H    3.069723   0.000000
     8  H    2.527373   1.778846   0.000000
 Stoichiometry    C2H4Cl2
 Framework group  C2[X(C2H4Cl2)]
 Deg. of freedom    10
 Full point group                 C2      NOp   2
 Largest Abelian subgroup         C2      NOp   2
 Largest concise Abelian subgroup C2      NOp   2
                         Standard orientation:                         
 ---------------------------------------------------------------------
 Center     Atomic      Atomic             Coordinates (Angstroms)
 Number     Number       Type             X           Y           Z
 ---------------------------------------------------------------------
      1         17           0        0.600606    1.615442   -0.470985
      2          6           0        0.600606    0.456540    0.894326
      3          6           0       -0.600606   -0.456540    0.894326
      4         17           0       -0.600606   -1.615442   -0.470985
      5          1           0       -0.599087   -1.052962    1.808381
      6          1           0       -1.531205    0.105887    0.832410
      7          1           0        1.531205   -0.105887    0.832410
      8          1           0        0.599087    1.052962    1.808381
 ---------------------------------------------------------------------
 Rotational constants (GHZ):          10.0324191           2.2058547           1.9189910
 Standard basis: 6-311+G(2d,p) (5D, 7F)
 There are    78 symmetry adapted cartesian basis functions of A   symmetry.
 There are    78 symmetry adapted cartesian basis functions of B   symmetry.
 There are    74 symmetry adapted basis functions of A   symmetry.
 There are    74 symmetry adapted basis functions of B   symmetry.
   148 basis functions,   234 primitive gaussians,   156 cartesian basis functions
    25 alpha electrons       25 beta electrons
       nuclear repulsion energy       201.7287284571 Hartrees.
 NAtoms=    8 NActive=    8 NUniq=    4 SFac= 4.00D+00 NAtFMM=   60 NAOKFM=F Big=F
 Integral buffers will be    131072 words long.
 Raffenetti 2 integral format.
 Two-electron integral symmetry is turned on.
 R6APFD:  NTU= -4 IXU= 1 FactS= 1.050
 Nuclear repulsion after empirical dispersion term =      201.7260417709 Hartrees.
 One-electron integrals computed using PRISM.
 NBasis=   148 RedAO= T EigKep=  1.30D-04  NBF=    74    74
 NBsUse=   148 1.00D-06 EigRej= -1.00D+00 NBFU=    74    74
 Initial guess from the checkpoint file:  "output.chk"
 B after Tr=    -0.000000   -0.000000   -0.000000
         Rot=    1.000000   -0.000000   -0.000000   -0.000000 Ang=   0.00 deg.
 Initial guess orbital symmetries:
       Occupied  (A) (B) (A) (B) (A) (B) (B) (A) (A) (B) (A) (B)
                 (A) (B) (A) (B) (B) (A) (A) (A) (B) (B) (A) (A)
                 (B)
       Virtual   (A) (A) (B) (B) (B) (A) (B) (A) (A) (A) (B) (B)
                 (A) (B) (A) (B) (A) (B) (A) (B) (B) (B) (A) (A)
                 (B) (A) (B) (B) (A) (A) (A) (B) (B) (A) (B) (A)
                 (A) (B) (A) (B) (B) (A) (B) (A) (B) (B) (A) (B)
                 (A) (A) (A) (B) (B) (A) (B) (A) (B) (A) (B) (A)
                 (B) (B) (A) (A) (B) (B) (A) (B) (A) (B) (A) (A)
                 (B) (A) (B) (A) (B) (B) (A) (A) (B) (A) (B) (A)
                 (B) (B) (A) (B) (A) (A) (B) (B) (A) (A) (B) (A)
                 (A) (B) (A) (B) (A) (B) (A) (B) (A) (B) (B) (A)
                 (A) (B) (B) (B) (A) (B) (A) (A) (B) (B) (A) (B)
                 (A) (B) (A)
 Keep R1 ints in memory in symmetry-blocked form, NReq=91216533.
 Requested convergence on RMS density matrix=1.00D-08 within 128 cycles.
 Requested convergence on MAX density matrix=1.00D-06.
 Requested convergence on             energy=1.00D-06.
 No special actions if energy rises.
 SCF Done:  E(RAPFD) =  -998.795008786     A.U. after    1 cycles
            NFock=  1  Conv=0.35D-08     -V/T= 2.0023
 DoSCS=F DFT=T ScalE2(SS,OS)=  1.000000  1.000000
 Range of M.O.s used for correlation:     1   148
 NBasis=   148 NAE=    25 NBE=    25 NFC=     0 NFV=     0
 NROrb=    148 NOA=    25 NOB=    25 NVA=   123 NVB=   123

 **** Warning!!: The largest alpha MO coefficient is  0.28580721D+02

          Differentiating once with respect to electric field.
                with respect to dipole field.
          Electric field/nuclear overlap derivatives assumed to be zero.
 Keep R1 ints in memory in symmetry-blocked form, NReq=91220090.
          There are     3 degrees of freedom in the 1st order CPHF.  IDoFFX=0 NUNeed=     3.
      3 vectors produced by pass  0 Test12= 1.02D-13 3.33D-08 XBig12= 3.75D+01 2.44D+00.
 AX will form     3 AO Fock derivatives at one time.
      3 vectors produced by pass  1 Test12= 1.02D-13 3.33D-08 XBig12= 9.30D+00 7.31D-01.
      3 vectors produced by pass  2 Test12= 1.02D-13 3.33D-08 XBig12= 2.13D+00 3.17D-01.
      3 vectors produced by pass  3 Test12= 1.02D-13 3.33D-08 XBig12= 2.41D-01 1.01D-01.
      3 vectors produced by pass  4 Test12= 1.02D-13 3.33D-08 XBig12= 2.19D-02 2.41D-02.
      3 vectors produced by pass  5 Test12= 1.02D-13 3.33D-08 XBig12= 2.04D-03 1.06D-02.
      3 vectors produced by pass  6 Test12= 1.02D-13 3.33D-08 XBig12= 1.23D-04 2.00D-03.
      3 vectors produced by pass  7 Test12= 1.02D-13 3.33D-08 XBig12= 9.91D-06 8.02D-04.
      3 vectors produced by pass  8 Test12= 1.02D-13 3.33D-08 XBig12= 6.23D-07 1.40D-04.
      3 vectors produced by pass  9 Test12= 1.02D-13 3.33D-08 XBig12= 1.28D-08 3.06D-05.
      2 vectors produced by pass 10 Test12= 1.02D-13 3.33D-08 XBig12= 8.87D-10 6.98D-06.
      1 vectors produced by pass 11 Test12= 1.02D-13 3.33D-08 XBig12= 9.35D-11 2.00D-06.
      1 vectors produced by pass 12 Test12= 1.02D-13 3.33D-08 XBig12= 3.12D-12 4.05D-07.
      1 vectors produced by pass 13 Test12= 1.02D-13 3.33D-08 XBig12= 3.80D-14 4.08D-08.
 InvSVY:  IOpt=1 It=  1 EMax= 1.78D-15
 Solved reduced A of dimension    35 with     3 vectors.
 End of Minotr F.D. properties file   721 does not exist.
 End of Minotr F.D. properties file   722 does not exist.
 End of Minotr F.D. properties file   788 does not exist.
 R6APFD:  NTU= -4 IXU= 1 FactS= 1.050
 Symmetrizing basis deriv contribution to polar:
 IMax=3 JMax=2 DiffMx= 0.00D+00
 G2DrvN: will do     9 centers at a time, making    1 passes.
 PxScal for G2LodP:  IOpCl= 0 ISclPx=1 IMOff=     1 NMtTot=     4 NTT=   11026 ScalPx= 7.90D+00
 Calling FoFCou, ICntrl=  3107 FMM=F I1Cent=   0 AccDes= 0.00D+00.
 End of G2Drv F.D. properties file   721 does not exist.
 End of G2Drv F.D. properties file   722 does not exist.
 End of G2Drv F.D. properties file   788 does not exist.
          IDoAtm=11111111
          Differentiating once with respect to electric field.
                with respect to dipole field.
          Differentiating once with respect to nuclear coordinates.
 Keep R1 ints in memory in symmetry-blocked form, NReq=91220274.
          There are    15 degrees of freedom in the 1st order CPHF.  IDoFFX=4 NUNeed=    15.
 Will reuse    3 saved solutions.
     12 vectors produced by pass  0 Test12= 2.05D-14 6.67D-09 XBig12= 5.84D-02 4.99D-02.
 AX will form    12 AO Fock derivatives at one time.
     12 vectors produced by pass  1 Test12= 2.05D-14 6.67D-09 XBig12= 3.59D-03 1.00D-02.
     12 vectors produced by pass  2 Test12= 2.05D-14 6.67D-09 XBig12= 9.38D-05 2.24D-03.
     12 vectors produced by pass  3 Test12= 2.05D-14 6.67D-09 XBig12= 3.83D-06 2.67D-04.
     12 vectors produced by pass  4 Test12= 2.05D-14 6.67D-09 XBig12= 1.95D-08 2.55D-05.
     12 vectors produced by pass  5 Test12= 2.05D-14 6.67D-09 XBig12= 7.78D-11 1.34D-06.
     10 vectors produced by pass  6 Test12= 2.05D-14 6.67D-09 XBig12= 2.38D-13 1.14D-07.
 InvSVY:  IOpt=1 It=  1 EMax= 1.44D-15
 Solved reduced A of dimension    82 with    12 vectors.
 Isotropic polarizability for W=    0.000000       50.32 Bohr**3.
 End of Minotr F.D. properties file   721 does not exist.
 End of Minotr F.D. properties file   722 does not exist.
 End of Minotr F.D. properties file   788 does not exist.

 **********************************************************************

            Population analysis using the SCF Density.

 **********************************************************************

 Orbital symmetries:
       Occupied  (A) (B) (A) (B) (A) (B) (B) (A) (A) (B) (A) (B)
                 (A) (B) (A) (B) (B) (A) (A) (A) (B) (B) (A) (A)
                 (B)
       Virtual   (A) (A) (B) (B) (B) (A) (B) (A) (A) (A) (B) (B)
                 (A) (B) (A) (B) (A) (B) (A) (B) (B) (B) (A) (A)
                 (B) (A) (B) (B) (A) (A) (A) (B) (B) (A) (B) (A)
                 (A) (B) (A) (B) (B) (A) (B) (A) (B) (B) (A) (B)
                 (A) (A) (A) (B) (B) (A) (B) (A) (B) (A) (B) (A)
                 (B) (B) (A) (A) (B) (B) (A) (B) (A) (B) (A) (A)
                 (B) (A) (B) (A) (B) (B) (A) (A) (B) (A) (B) (A)
                 (B) (B) (A) (B) (A) (A) (B) (B) (A) (A) (B) (A)
                 (A) (B) (A) (B) (A) (B) (A) (B) (A) (B) (B) (A)
                 (A) (B) (B) (B) (A) (B) (A) (A) (B) (B) (A) (B)
                 (A) (B) (A)
 The electronic state is 1-A.
 Alpha  occ. eigenvalues -- -101.64565-101.64565 -10.27696 -10.27668  -9.50676
 Alpha  occ. eigenvalues --   -9.50676  -7.25369  -7.25369  -7.24386  -7.24386
 Alpha  occ. eigenvalues --   -7.24367  -7.24367  -0.90812  -0.85972  -0.75207
 Alpha  occ. eigenvalues --   -0.64076  -0.50955  -0.49957  -0.45894  -0.41873
 Alpha  occ. eigenvalues --   -0.41119  -0.32625  -0.31974  -0.31282  -0.31049
 Alpha virt. eigenvalues --   -0.00663   0.01345   0.01586   0.03721   0.04271
 Alpha virt. eigenvalues --    0.04694   0.07892   0.08547   0.09198   0.09683
 Alpha virt. eigenvalues --    0.10142   0.11335   0.11686   0.12376   0.12590
 Alpha virt. eigenvalues --    0.13273   0.16448   0.18245   0.19272   0.20141
 Alpha virt. eigenvalues --    0.21907   0.23017   0.25334   0.36249   0.36751
 Alpha virt. eigenvalues --    0.38526   0.39378   0.40788   0.40798   0.42637
 Alpha virt. eigenvalues --    0.45022   0.45511   0.45944   0.47600   0.47861
 Alpha virt. eigenvalues --    0.48355   0.48949   0.49872   0.52164   0.55550
 Alpha virt. eigenvalues --    0.57061   0.60031   0.60916   0.65753   0.67051
 Alpha virt. eigenvalues --    0.71407   0.72465   0.74603   0.76564   0.78628
 Alpha virt. eigenvalues --    0.83078   0.88255   0.92660   0.96742   1.00328
 Alpha virt. eigenvalues --    1.12898   1.13283   1.18062   1.19039   1.24225
 Alpha virt. eigenvalues --    1.24523   1.29459   1.31165   1.60619   1.61566
 Alpha virt. eigenvalues --    1.74707   1.86673   1.92962   2.03033   2.07751
 Alpha virt. eigenvalues --    2.13263   2.23200   2.23828   2.27369   2.28772
 Alpha virt. eigenvalues --    2.35639   2.36520   2.37507   2.37573   2.38462
 Alpha virt. eigenvalues --    2.38605   2.42215   2.42990   2.45809   2.45877
 Alpha virt. eigenvalues --    2.52296   2.53423   2.55142   2.59608   2.64874
 Alpha virt. eigenvalues --    2.66005   2.74911   2.75318   2.81657   2.82731
 Alpha virt. eigenvalues --    3.14623   3.16146   3.23850   3.26594   3.33539
 Alpha virt. eigenvalues --    3.36687   3.42734   3.43051   3.48441   3.53258
 Alpha virt. eigenvalues --    3.53993   3.68462   3.82594   4.17220   4.19249
 Alpha virt. eigenvalues --    4.39779   9.77635   9.82181  23.86390  23.89380
 Alpha virt. eigenvalues --   25.94308  25.97382  26.00973  26.01333  26.88455
 Alpha virt. eigenvalues --   27.11426 215.89867 215.94863
          Condensed to atoms (all electrons):
               1          2          3          4          5          6
     1  Cl  16.868894   0.210997  -0.043124   0.028269   0.012746  -0.013851
     2  C    0.210997   5.261001   0.233920  -0.043124  -0.055702  -0.033079
     3  C   -0.043124   0.233920   5.261001   0.210997   0.392672   0.430816
     4  Cl   0.028269  -0.043124   0.210997  16.868894  -0.037206  -0.056995
     5  H    0.012746  -0.055702   0.392672  -0.037206   0.549079  -0.035600
     6  H   -0.013851  -0.033079   0.430816  -0.056995  -0.035600   0.517393
     7  H   -0.056995   0.430816  -0.033079  -0.013851  -0.003285   0.005239
     8  H   -0.037206   0.392672  -0.055702   0.012746  -0.000574  -0.003285
               7          8
     1  Cl  -0.056995  -0.037206
     2  C    0.430816   0.392672
     3  C   -0.033079  -0.055702
     4  Cl  -0.013851   0.012746
     5  H   -0.003285  -0.000574
     6  H    0.005239  -0.003285
     7  H    0.517393  -0.035600
     8  H   -0.035600   0.549079
 Mulliken charges:
               1
     1  Cl   0.030269
     2  C   -0.397500
     3  C   -0.397500
     4  Cl   0.030269
     5  H    0.177869
     6  H    0.189362
     7  H    0.189362
     8  H    0.177869
 Sum of Mulliken charges =  -0.00000
 Mulliken charges with hydrogens summed into heavy atoms:
               1
     1  Cl   0.030269
     2  C   -0.030269
     3  C   -0.030269
     4  Cl   0.030269
 APT charges:
               1
     1  Cl  -0.286292
     2  C    0.294254
     3  C    0.294254
     4  Cl  -0.286292
     5  H   -0.012984
     6  H    0.005023
     7  H    0.005023
     8  H   -0.012984
 Sum of APT charges =  -0.00000
 APT charges with hydrogens summed into heavy atoms:
               1
     1  Cl  -0.286292
     2  C    0.286292
     3  C    0.286292
     4  Cl  -0.286292
 Electronic spatial extent (au):  <R**2>=            587.7059
 Charge=              0.0000 electrons
 Dipole moment (field-independent basis, Debye):
    X=             -0.0000    Y=             -0.0000    Z=              2.7743  Tot=              2.7743
 Quadrupole moment (field-independent basis, Debye-Ang):
   XX=            -37.8942   YY=            -42.2174   ZZ=            -35.3503
   XY=             -1.4787   XZ=              0.0000   YZ=              0.0000
 Traceless Quadrupole moment (field-independent basis, Debye-Ang):
   XX=              0.5931   YY=             -3.7301   ZZ=              3.1370
   XY=             -1.4787   XZ=              0.0000   YZ=              0.0000
 Octapole moment (field-independent basis, Debye-Ang**2):
  XXX=              0.0000  YYY=              0.0000  ZZZ=              1.4282  XYY=             -0.0000
  XXY=              0.0000  XXZ=              1.7212  XZZ=              0.0000  YZZ=              0.0000
  YYZ=             -1.7031  XYZ=              0.6121
 Hexadecapole moment (field-independent basis, Debye-Ang**3):
 XXXX=           -140.9676 YYYY=           -474.8545 ZZZZ=           -147.9961 XXXY=            -90.3108
 XXXZ=              0.0000 YYYX=            -87.8892 YYYZ=              0.0000 ZZZX=              0.0000
 ZZZY=              0.0000 XXYY=           -106.7073 XXZZ=            -50.0722 YYZZ=            -91.8575
 XXYZ=              0.0000 YYXZ=              0.0000 ZZXY=            -24.9654
 N-N= 2.017260417709D+02 E-N=-2.773683046828D+03  KE= 9.964580992107D+02
 Symmetry A    KE= 4.992772126878D+02
 Symmetry B    KE= 4.971808865228D+02
  Exact polarizability:      43.277       4.808      56.457      -0.000       0.000      51.220
 Approx polarizability:      61.190       2.067      75.846      -0.000       0.000      77.528
 R6APFD:  NTU= -4 IXU= 1 FactS= 1.050
 Calling FoFJK, ICntrl=    100127 FMM=F ISym2X=1 I1Cent= 0 IOpClX= 0 NMat=1 NMatS=1 NMatT=0.
 Full mass-weighted force constant matrix:
 Low frequencies ---   -6.1291   -2.9878   -0.0042   -0.0041   -0.0027    3.7925
 Low frequencies ---  113.4140  239.4732  373.0493
 Diagonal vibrational polarizability:
        0.5913644       4.0519177       3.7587207
 Diagonal vibrational hyperpolarizability:
        0.0000000      -0.0000000      68.0391980
 Harmonic frequencies (cm**-1), IR intensities (KM/Mole), Raman scattering
 activities (A**4/AMU), depolarization ratios for plane and unpolarized
 incident light, reduced masses (AMU), force constants (mDyne/A),
 and normal coordinates:
                           1         2         3         4         5
                           A         A         B         A         B
       Frequencies ---   113.4139  239.4732  373.0493  661.9673  691.3653
    Reduced masses ---     9.4518    2.3958    3.3706    4.7517    3.1395
   Force constants ---     0.0716    0.0809    0.2764    1.2268    0.8841
    IR Intensities ---     0.6706    1.2289    8.6939   16.3400   24.6433
  Raman Activities ---     1.0498    1.4086    1.6618   13.9190    6.1442
    Depol. (Plane) ---     0.7419    0.2374    0.7500    0.0550    0.7500
    Depol. (Unpol) ---     0.8518    0.3837    0.8571    0.1043    0.8571
 Coord Atom Element:
   1     1    17          0.08779   0.06869  -0.06009  -0.00398   0.01067
   2     1    17          0.30429   0.05622  -0.07019   0.07981  -0.06941
   3     1    17          0.08639  -0.03310   0.04691  -0.11061   0.07428
   1     2     6          0.05661  -0.09611   0.16610   0.12599  -0.04628
   2     2     6         -0.06443   0.14693   0.15970  -0.05379   0.20547
   3     2     6         -0.20925   0.06769   0.14562   0.30659  -0.14254
   1     3     6         -0.05661   0.09611   0.16610  -0.12599  -0.04628
   2     3     6          0.06443  -0.14693   0.15970   0.05379   0.20547
   3     3     6         -0.20925   0.06769  -0.14562   0.30659   0.14254
   1     4    17         -0.08779  -0.06869  -0.06009   0.00398   0.01067
   2     4    17         -0.30429  -0.05622  -0.07019  -0.07981  -0.06941
   3     4    17          0.08639  -0.03310  -0.04691  -0.11061  -0.07428
   1     5     1         -0.23238   0.41471  -0.17183  -0.52007   0.43482
   2     5     1          0.26700  -0.23501   0.21274  -0.05554   0.08175
   3     5     1         -0.07719   0.01131  -0.11346   0.23182   0.05609
   1     6     1          0.01648  -0.03930   0.27913  -0.01128  -0.25397
   2     6     1          0.16026  -0.34223   0.32122   0.19802  -0.11982
   3     6     1         -0.42883   0.33108  -0.38237  -0.04443   0.38356
   1     7     1         -0.01648   0.03930   0.27913   0.01128  -0.25397
   2     7     1         -0.16026   0.34223   0.32122  -0.19802  -0.11982
   3     7     1         -0.42883   0.33108   0.38237  -0.04443  -0.38356
   1     8     1          0.23238  -0.41471  -0.17183   0.52007   0.43482
   2     8     1         -0.26700   0.23501   0.21274   0.05554   0.08175
   3     8     1         -0.07719   0.01131   0.11346   0.23182  -0.05609
                           6         7         8         9        10
                           B         A         A         B         A
       Frequencies ---   894.4165  955.2125 1049.3990 1168.9276 1233.6225
    Reduced masses ---     1.7719    1.7163    2.4565    1.0371    1.1732
   Force constants ---     0.8352    0.9227    1.5939    0.8349    1.0519
    IR Intensities ---    23.4965   13.8648    1.7455    0.8415    0.8227
  Raman Activities ---     1.4834    4.6869    1.5528    2.4117    9.1864
    Depol. (Plane) ---     0.7500    0.1694    0.7500    0.7500    0.5903
    Depol. (Unpol) ---     0.8571    0.2897    0.8571    0.8571    0.7424
 Coord Atom Element:
   1     1    17         -0.00226   0.01173  -0.00696   0.00799  -0.00160
   2     1    17          0.00237  -0.02043  -0.00328  -0.00789  -0.00367
   3     1    17         -0.02954   0.01170   0.01740  -0.00136  -0.00810
   1     2     6         -0.00767  -0.01058   0.23594  -0.02822   0.08158
   2     2     6          0.03240   0.17312   0.08032   0.00730   0.02412
   3     2     6          0.17583  -0.00248  -0.05155  -0.00924  -0.00555
   1     3     6         -0.00767   0.01058  -0.23594  -0.02822  -0.08158
   2     3     6          0.03240  -0.17312  -0.08032   0.00730  -0.02412
   3     3     6         -0.17583  -0.00248  -0.05155   0.00924  -0.00555
   1     4    17         -0.00226  -0.01173   0.00696   0.00799   0.00160
   2     4    17          0.00237   0.02043   0.00328  -0.00789   0.00367
   3     4    17          0.02954   0.01170   0.01740   0.00136  -0.00810
   1     5     1          0.36546  -0.43184  -0.06374  -0.14598   0.24659
   2     5     1         -0.23186   0.00996  -0.42121  -0.26908   0.49459
   3     5     1         -0.34506   0.11377  -0.27735  -0.17940   0.35085
   1     6     1         -0.19571   0.04638  -0.28513   0.20491  -0.17815
   2     6     1         -0.23614  -0.16536  -0.11159   0.45587  -0.17992
   3     6     1          0.25816  -0.49010   0.28759   0.35105  -0.00384
   1     7     1         -0.19571  -0.04638   0.28513   0.20491   0.17815
   2     7     1         -0.23614   0.16536   0.11159   0.45587   0.17992
   3     7     1         -0.25816  -0.49010   0.28759  -0.35105  -0.00384
   1     8     1          0.36546   0.43184   0.06374  -0.14598  -0.24659
   2     8     1         -0.23186  -0.00996   0.42121  -0.26908  -0.49459
   3     8     1          0.34506   0.11377  -0.27735   0.17940   0.35085
                          11        12        13        14        15
                           B         A         B         A         B
       Frequencies ---  1312.3293 1338.3256 1462.8611 1463.7598 3083.5476
    Reduced masses ---     1.2146    1.2335    1.0794    1.0987    1.0589
   Force constants ---     1.2325    1.3017    1.3609    1.3870    5.9321
    IR Intensities ---    37.0199   15.5214   13.8701    1.6160    2.9353
  Raman Activities ---     0.4356    2.7171   10.6770    3.3436   37.5459
    Depol. (Plane) ---     0.7500    0.7414    0.7500    0.7481    0.7500
    Depol. (Unpol) ---     0.8571    0.8515    0.8571    0.8559    0.8571
 Coord Atom Element:
   1     1    17          0.00224  -0.00461  -0.00056   0.00050  -0.00007
   2     1    17         -0.00235   0.00288   0.00130  -0.00151  -0.00017
   3     1    17          0.00730  -0.00308  -0.00224   0.00177   0.00010
   1     2     6         -0.03596   0.01323  -0.05040   0.04995   0.02477
   2     2     6         -0.05190   0.09564  -0.01174   0.01896   0.01373
   3     2     6          0.07227  -0.02870  -0.02357   0.03551   0.03901
   1     3     6         -0.03596  -0.01323  -0.05040  -0.04995   0.02477
   2     3     6         -0.05190  -0.09564  -0.01174  -0.01896   0.01373
   3     3     6         -0.07227  -0.02870   0.02357   0.03551  -0.03901
   1     4    17          0.00224   0.00461  -0.00056  -0.00050  -0.00007
   2     4    17         -0.00235  -0.00288   0.00130   0.00151  -0.00017
   3     4    17         -0.00730  -0.00308   0.00224   0.00177  -0.00010
   1     5     1          0.24573  -0.04140   0.47602   0.46084   0.00891
   2     5     1          0.47263   0.13956  -0.14611  -0.15228  -0.34267
   3     5     1          0.28424   0.12945  -0.08214  -0.06267   0.50400
   1     6     1          0.10469   0.31140   0.14366   0.14756  -0.30127
   2     6     1          0.22681   0.50303   0.24088   0.23874   0.18511
   3     6     1          0.25252   0.31916  -0.40424  -0.42145  -0.03346
   1     7     1          0.10469  -0.31140   0.14366  -0.14756  -0.30127
   2     7     1          0.22681  -0.50303   0.24088  -0.23874   0.18511
   3     7     1         -0.25252   0.31916   0.40424  -0.42145   0.03346
   1     8     1          0.24573   0.04140   0.47602  -0.46084   0.00891
   2     8     1          0.47263  -0.13956  -0.14611   0.15228  -0.34267
   3     8     1         -0.28424   0.12945   0.08214  -0.06267  -0.50400
                          16        17        18
                           A         A         B
       Frequencies ---  3092.1981 3146.3684 3160.8398
    Reduced masses ---     1.0591    1.1081    1.1064
   Force constants ---     5.9667    6.4631    6.5126
    IR Intensities ---    19.5530    0.3285    2.3964
  Raman Activities ---   228.5085   93.0684   24.2042
    Depol. (Plane) ---     0.0145    0.7500    0.7500
    Depol. (Unpol) ---     0.0285    0.8571    0.8571
 Coord Atom Element:
   1     1    17          0.00008  -0.00006   0.00012
   2     1    17          0.00008  -0.00006  -0.00016
   3     1    17          0.00006   0.00018   0.00003
   1     2     6         -0.03209   0.03989  -0.04421
   2     2     6         -0.00758  -0.04278   0.04260
   3     2     6         -0.03530  -0.03375   0.02669
   1     3     6          0.03209  -0.03989  -0.04421
   2     3     6          0.00758   0.04278   0.04260
   3     3     6         -0.03530  -0.03375  -0.02669
   1     4    17         -0.00008   0.00006   0.00012
   2     4    17         -0.00008   0.00006  -0.00016
   3     4    17          0.00006   0.00018  -0.00003
   1     5     1          0.00330  -0.00489  -0.00607
   2     5     1         -0.31362  -0.24177  -0.19416
   3     5     1          0.45540   0.36031   0.28705
   1     6     1         -0.37252   0.47604   0.52830
   2     6     1          0.22751  -0.28158  -0.30750
   3     6     1         -0.03711   0.03513   0.04156
   1     7     1          0.37252  -0.47604   0.52830
   2     7     1         -0.22751   0.28158  -0.30750
   3     7     1         -0.03711   0.03513  -0.04156
   1     8     1         -0.00330   0.00489  -0.00607
   2     8     1          0.31362   0.24177  -0.19416
   3     8     1          0.45540   0.36031  -0.28705
 Harmonic frequencies (cm**-1), IR intensities (KM/Mole), Raman scattering
 activities (A**4/AMU), depolarization ratios for plane and unpolarized
 incident light, reduced masses (AMU), force constants (mDyne/A),
 and normal coordinates:
                      1                      2                      3
                      A                      A                      B
 Frequencies --    113.4139               239.4732               373.0493
 Red. masses --      9.4518                 2.3958                 3.3706
 Frc consts  --      0.0716                 0.0809                 0.2764
 IR Inten    --      0.6706                 1.2289                 8.6939
 Raman Activ --      1.0498                 1.4086                 1.6618
 Depolar (P) --      0.7419                 0.2374                 0.7500
 Depolar (U) --      0.8518                 0.3837                 0.8571
  Atom  AN      X      Y      Z        X      Y      Z        X      Y      Z
     1  17     0.09   0.30   0.09     0.07   0.06  -0.03    -0.06  -0.07   0.05
     2   6     0.06  -0.06  -0.21    -0.10   0.15   0.07     0.17   0.16   0.15
     3   6    -0.06   0.06  -0.21     0.10  -0.15   0.07     0.17   0.16  -0.15
     4  17    -0.09  -0.30   0.09    -0.07  -0.06  -0.03    -0.06  -0.07  -0.05
     5   1    -0.23   0.27  -0.08     0.41  -0.24   0.01    -0.17   0.21  -0.11
     6   1     0.02   0.16  -0.43    -0.04  -0.34   0.33     0.28   0.32  -0.38
     7   1    -0.02  -0.16  -0.43     0.04   0.34   0.33     0.28   0.32   0.38
     8   1     0.23  -0.27  -0.08    -0.41   0.24   0.01    -0.17   0.21   0.11
                      4                      5                      6
                      A                      B                      B
 Frequencies --    661.9673               691.3653               894.4165
 Red. masses --      4.7517                 3.1395                 1.7719
 Frc consts  --      1.2268                 0.8841                 0.8352
 IR Inten    --     16.3400                24.6433                23.4965
 Raman Activ --     13.9190                 6.1442                 1.4834
 Depolar (P) --      0.0550                 0.7500                 0.7500
 Depolar (U) --      0.1043                 0.8571                 0.8571
  Atom  AN      X      Y      Z        X      Y      Z        X      Y      Z
     1  17    -0.00   0.08  -0.11     0.01  -0.07   0.07    -0.00   0.00  -0.03
     2   6     0.13  -0.05   0.31    -0.05   0.21  -0.14    -0.01   0.03   0.18
     3   6    -0.13   0.05   0.31    -0.05   0.21   0.14    -0.01   0.03  -0.18
     4  17     0.00  -0.08  -0.11     0.01  -0.07  -0.07    -0.00   0.00   0.03
     5   1    -0.52  -0.06   0.23     0.43   0.08   0.06     0.37  -0.23  -0.35
     6   1    -0.01   0.20  -0.04    -0.25  -0.12   0.38    -0.20  -0.24   0.26
     7   1     0.01  -0.20  -0.04    -0.25  -0.12  -0.38    -0.20  -0.24  -0.26
     8   1     0.52   0.06   0.23     0.43   0.08  -0.06     0.37  -0.23   0.35
                      7                      8                      9
                      A                      A                      B
 Frequencies --    955.2125              1049.3990              1168.9276
 Red. masses --      1.7163                 2.4565                 1.0371
 Frc consts  --      0.9227                 1.5939                 0.8349
 IR Inten    --     13.8648                 1.7455                 0.8415
 Raman Activ --      4.6869                 1.5528                 2.4117
 Depolar (P) --      0.1694                 0.7500                 0.7500
 Depolar (U) --      0.2897                 0.8571                 0.8571
  Atom  AN      X      Y      Z        X      Y      Z        X      Y      Z
     1  17     0.01  -0.02   0.01    -0.01  -0.00   0.02     0.01  -0.01  -0.00
     2   6    -0.01   0.17  -0.00     0.24   0.08  -0.05    -0.03   0.01  -0.01
     3   6     0.01  -0.17  -0.00    -0.24  -0.08  -0.05    -0.03   0.01   0.01
     4  17    -0.01   0.02   0.01     0.01   0.00   0.02     0.01  -0.01   0.00
     5   1    -0.43   0.01   0.11    -0.06  -0.42  -0.28    -0.15  -0.27  -0.18
     6   1     0.05  -0.17  -0.49    -0.29  -0.11   0.29     0.20   0.46   0.35
     7   1    -0.05   0.17  -0.49     0.29   0.11   0.29     0.20   0.46  -0.35
     8   1     0.43  -0.01   0.11     0.06   0.42  -0.28    -0.15  -0.27   0.18
                     10                     11                     12
                      A                      B                      A
 Frequencies --   1233.6225              1312.3293              1338.3256
 Red. masses --      1.1732                 1.2146                 1.2335
 Frc consts  --      1.0519                 1.2325                 1.3017
 IR Inten    --      0.8227                37.0199                15.5214
 Raman Activ --      9.1864                 0.4356                 2.7171
 Depolar (P) --      0.5903                 0.7500                 0.7414
 Depolar (U) --      0.7424                 0.8571                 0.8515
  Atom  AN      X      Y      Z        X      Y      Z        X      Y      Z
     1  17    -0.00  -0.00  -0.01     0.00  -0.00   0.01    -0.00   0.00  -0.00
     2   6     0.08   0.02  -0.01    -0.04  -0.05   0.07     0.01   0.10  -0.03
     3   6    -0.08  -0.02  -0.01    -0.04  -0.05  -0.07    -0.01  -0.10  -0.03
     4  17     0.00   0.00  -0.01     0.00  -0.00  -0.01     0.00  -0.00  -0.00
     5   1     0.25   0.49   0.35     0.25   0.47   0.28    -0.04   0.14   0.13
     6   1    -0.18  -0.18  -0.00     0.10   0.23   0.25     0.31   0.50   0.32
     7   1     0.18   0.18  -0.00     0.10   0.23  -0.25    -0.31  -0.50   0.32
     8   1    -0.25  -0.49   0.35     0.25   0.47  -0.28     0.04  -0.14   0.13
                     13                     14                     15
                      B                      A                      B
 Frequencies --   1462.8611              1463.7598              3083.5476
 Red. masses --      1.0794                 1.0987                 1.0589
 Frc consts  --      1.3609                 1.3870                 5.9321
 IR Inten    --     13.8701                 1.6160                 2.9353
 Raman Activ --     10.6770                 3.3436                37.5459
 Depolar (P) --      0.7500                 0.7481                 0.7500
 Depolar (U) --      0.8571                 0.8559                 0.8571
  Atom  AN      X      Y      Z        X      Y      Z        X      Y      Z
     1  17    -0.00   0.00  -0.00     0.00  -0.00   0.00    -0.00  -0.00   0.00
     2   6    -0.05  -0.01  -0.02     0.05   0.02   0.04     0.02   0.01   0.04
     3   6    -0.05  -0.01   0.02    -0.05  -0.02   0.04     0.02   0.01  -0.04
     4  17    -0.00   0.00   0.00    -0.00   0.00   0.00    -0.00  -0.00  -0.00
     5   1     0.48  -0.15  -0.08     0.46  -0.15  -0.06     0.01  -0.34   0.50
     6   1     0.14   0.24  -0.40     0.15   0.24  -0.42    -0.30   0.19  -0.03
     7   1     0.14   0.24   0.40    -0.15  -0.24  -0.42    -0.30   0.19   0.03
     8   1     0.48  -0.15   0.08    -0.46   0.15  -0.06     0.01  -0.34  -0.50
                     16                     17                     18
                      A                      A                      B
 Frequencies --   3092.1981              3146.3684              3160.8398
 Red. masses --      1.0591                 1.1081                 1.1064
 Frc consts  --      5.9667                 6.4631                 6.5126
 IR Inten    --     19.5530                 0.3285                 2.3964
 Raman Activ --    228.5085                93.0684                24.2042
 Depolar (P) --      0.0145                 0.7500                 0.7500
 Depolar (U) --      0.0285                 0.8571                 0.8571
  Atom  AN      X      Y      Z        X      Y      Z        X      Y      Z
     1  17     0.00   0.00   0.00    -0.00  -0.00   0.00     0.00  -0.00   0.00
     2   6    -0.03  -0.01  -0.04     0.04  -0.04  -0.03    -0.04   0.04   0.03
     3   6     0.03   0.01  -0.04    -0.04   0.04  -0.03    -0.04   0.04  -0.03
     4  17    -0.00  -0.00   0.00     0.00   0.00   0.00     0.00  -0.00  -0.00
     5   1     0.00  -0.31   0.46    -0.00  -0.24   0.36    -0.01  -0.19   0.29
     6   1    -0.37   0.23  -0.04     0.48  -0.28   0.04     0.53  -0.31   0.04
     7   1     0.37  -0.23  -0.04    -0.48   0.28   0.04     0.53  -0.31  -0.04
     8   1    -0.00   0.31   0.46     0.00   0.24   0.36    -0.01  -0.19  -0.29

 -------------------
 - Thermochemistry -
 -------------------
 Temperature   298.150 Kelvin.  Pressure   1.00000 Atm.
 Atom     1 has atomic number 17 and mass  34.96885
 Atom     2 has atomic number  6 and mass  12.00000
 Atom     3 has atomic number  6 and mass  12.00000
 Atom     4 has atomic number 17 and mass  34.96885
 Atom     5 has atomic number  1 and mass   1.00783
 Atom     6 has atomic number  1 and mass   1.00783
 Atom     7 has atomic number  1 and mass   1.00783
 Atom     8 has atomic number  1 and mass   1.00783
 Molecular mass:    97.96901 amu.
 Principal axes and moments of inertia in atomic units:
                           1         2         3
     Eigenvalues --   179.89093 818.15959 940.46362
           X            0.38318   0.00000   0.92367
           Y            0.92367   0.00000  -0.38318
           Z            0.00000   1.00000   0.00000
 This molecule is an asymmetric top.
 Rotational symmetry number  2.
 Rotational temperatures (Kelvin)      0.48148     0.10586     0.09210
 Rotational constants (GHZ):          10.03242     2.20585     1.91899
 Zero-point vibrational energy     152171.4 (Joules/Mol)
                                   36.36984 (Kcal/Mol)
 Warning -- explicit consideration of   3 degrees of freedom as
           vibrations may cause significant error
 Vibrational temperatures:    163.18   344.55   536.73   952.42   994.72
          (Kelvin)           1286.87  1374.34  1509.85  1681.83  1774.91
                             1888.15  1925.55  2104.73  2106.02  4436.54
                             4448.98  4526.92  4547.74
 
 Zero-point correction=                           0.057959 (Hartree/Particle)
 Thermal correction to Energy=                    0.062779
 Thermal correction to Enthalpy=                  0.063723
 Thermal correction to Gibbs Free Energy=         0.029535
 Sum of electronic and zero-point Energies=           -998.737050
 Sum of electronic and thermal Energies=              -998.732230
 Sum of electronic and thermal Enthalpies=            -998.731286
 Sum of electronic and thermal Free Energies=         -998.765474
 
                     E (Thermal)             CV                S
                      KCal/Mol        Cal/Mol-Kelvin    Cal/Mol-Kelvin
 Total                   39.394             15.073             71.954
 Electronic               0.000              0.000              0.000
 Translational            0.889              2.981             39.657
 Rotational               0.889              2.981             25.051
 Vibrational             37.617              9.111              7.246
 Vibration     1          0.607              1.938              3.210
 Vibration     2          0.657              1.780              1.807
 Vibration     3          0.744              1.527              1.067
                       Q            Log10(Q)             Ln(Q)
 Total Bot       0.259904D-13        -13.585186        -31.281047
 Total V=0       0.118603D+14         13.074097         30.104220
 Vib (Bot)       0.102404D-25        -25.989683        -59.843458
 Vib (Bot)    1  0.180455D+01          0.256368          0.590309
 Vib (Bot)    2  0.818996D+00         -0.086718         -0.199676
 Vib (Bot)    3  0.487010D+00         -0.312462         -0.719470
 Vib (V=0)       0.467304D+01          0.669599          1.541810
 Vib (V=0)    1  0.237254D+01          0.375213          0.863959
 Vib (V=0)    2  0.145956D+01          0.164222          0.378135
 Vib (V=0)    3  0.119798D+01          0.078450          0.180639
 Electronic      0.100000D+01          0.000000          0.000000
 Translational   0.381142D+08          7.581087         17.456098
 Rotational      0.665902D+05          4.823410         11.106313
 ***** Axes restored to original set *****
 -------------------------------------------------------------------
 Center     Atomic                   Forces (Hartrees/Bohr)
 Number     Number              X              Y              Z
 -------------------------------------------------------------------
      1       17           0.000007085   -0.000012097    0.000024743
      2        6          -0.000052154    0.000021285   -0.000017754
      3        6           0.000058527   -0.000007904   -0.000000643
      4       17          -0.000020147   -0.000015327    0.000012961
      5        1           0.000017088    0.000016274   -0.000001189
      6        1           0.000004741   -0.000004282    0.000001555
      7        1          -0.000006013    0.000001612    0.000002116
      8        1          -0.000009128    0.000000439   -0.000021789
 -------------------------------------------------------------------
 Cartesian Forces:  Max     0.000058527 RMS     0.000020204
 FormGI is forming the generalized inverse of G from B-inverse, IUseBI=4.

 GradGradGradGradGradGradGradGradGradGradGradGradGradGradGradGradGradGrad
 Berny optimization.
 Internal  Forces:  Max     0.000060811 RMS     0.000017537
 Search for a local minimum.
 Step number   1 out of a maximum of    2
 All quantities printed in internal units (Hartrees-Bohrs-Radians)
 Second derivative matrix not updated -- analytic derivatives used.
 ITU=  0
     Eigenvalues ---    0.00402   0.04340   0.04452   0.05790   0.06206
     Eigenvalues ---    0.12013   0.12218   0.12663   0.13961   0.18977
     Eigenvalues ---    0.19506   0.22549   0.22563   0.28728   0.34174
     Eigenvalues ---    0.34269   0.34913   0.35004
 Angle between quadratic step and forces=  43.33 degrees.
 Linear search not attempted -- first point.
 Iteration  1 RMS(Cart)=  0.00020258 RMS(Int)=  0.00000003
 Iteration  2 RMS(Cart)=  0.00000003 RMS(Int)=  0.00000001
 ClnCor:  largest displacement from symmetrization is 3.43D-13 for atom     7.
 Variable       Old X    -DE/DX   Delta X   Delta X   Delta X     New X
                                 (Linear)    (Quad)   (Total)
    R1        3.38421  -0.00003   0.00000  -0.00009  -0.00009   3.38412
    R2        2.85131   0.00006   0.00000   0.00021   0.00021   2.85152
    R3        2.05813   0.00001   0.00000   0.00001   0.00001   2.05814
    R4        2.06250  -0.00000   0.00000  -0.00002  -0.00002   2.06249
    R5        3.38421  -0.00003   0.00000  -0.00009  -0.00009   3.38412
    R6        2.06250  -0.00000   0.00000  -0.00002  -0.00002   2.06249
    R7        2.05813   0.00001   0.00000   0.00001   0.00001   2.05814
    A1        1.97318  -0.00002   0.00000  -0.00018  -0.00018   1.97300
    A2        1.86590   0.00001   0.00000   0.00011   0.00011   1.86601
    A3        1.85965  -0.00001   0.00000  -0.00018  -0.00018   1.85948
    A4        1.94737   0.00001   0.00000   0.00003   0.00003   1.94740
    A5        1.90666   0.00002   0.00000   0.00018   0.00018   1.90683
    A6        1.90815  -0.00001   0.00000   0.00004   0.00004   1.90819
    A7        1.97318  -0.00002   0.00000  -0.00018  -0.00018   1.97300
    A8        1.90666   0.00002   0.00000   0.00018   0.00018   1.90683
    A9        1.94737   0.00001   0.00000   0.00003   0.00003   1.94740
   A10        1.85965  -0.00001   0.00000  -0.00018  -0.00018   1.85948
   A11        1.86590   0.00001   0.00000   0.00011   0.00011   1.86601
   A12        1.90815  -0.00001   0.00000   0.00004   0.00004   1.90819
    D1        1.18854   0.00001   0.00000   0.00029   0.00029   1.18882
    D2       -3.02721  -0.00000   0.00000   0.00007   0.00007  -3.02714
    D3       -0.91536   0.00001   0.00000   0.00026   0.00026  -0.91510
    D4       -0.91536   0.00001   0.00000   0.00026   0.00026  -0.91510
    D5        1.15208  -0.00001   0.00000   0.00004   0.00004   1.15212
    D6       -3.01925   0.00001   0.00000   0.00022   0.00022  -3.01903
    D7       -3.02721  -0.00000   0.00000   0.00007   0.00007  -3.02714
    D8       -0.95978  -0.00002   0.00000  -0.00014  -0.00014  -0.95992
    D9        1.15208  -0.00001   0.00000   0.00004   0.00004   1.15212
         Item               Value     Threshold  Converged?
 Maximum Force            0.000061     0.000450     YES
 RMS     Force            0.000018     0.000300     YES
 Maximum Displacement     0.000540     0.001800     YES
 RMS     Displacement     0.000203     0.001200     YES
 Predicted change in Energy=-2.554320D-08
 Optimization completed.
    -- Stationary point found.
                           ----------------------------
                           !   Optimized Parameters   !
                           ! (Angstroms and Degrees)  !
 --------------------------                            --------------------------
 ! Name  Definition              Value          Derivative Info.                !
 --------------------------------------------------------------------------------
 ! R1    R(1,2)                  1.7908         -DE/DX =    0.0                 !
 ! R2    R(2,3)                  1.5088         -DE/DX =    0.0001              !
 ! R3    R(2,7)                  1.0891         -DE/DX =    0.0                 !
 ! R4    R(2,8)                  1.0914         -DE/DX =    0.0                 !
 ! R5    R(3,4)                  1.7908         -DE/DX =    0.0                 !
 ! R6    R(3,5)                  1.0914         -DE/DX =    0.0                 !
 ! R7    R(3,6)                  1.0891         -DE/DX =    0.0                 !
 ! A1    A(1,2,3)              113.0546         -DE/DX =    0.0                 !
 ! A2    A(1,2,7)              106.9082         -DE/DX =    0.0                 !
 ! A3    A(1,2,8)              106.5502         -DE/DX =    0.0                 !
 ! A4    A(3,2,7)              111.5761         -DE/DX =    0.0                 !
 ! A5    A(3,2,8)              109.2434         -DE/DX =    0.0                 !
 ! A6    A(7,2,8)              109.3292         -DE/DX =    0.0                 !
 ! A7    A(2,3,4)              113.0546         -DE/DX =    0.0                 !
 ! A8    A(2,3,5)              109.2434         -DE/DX =    0.0                 !
 ! A9    A(2,3,6)              111.5761         -DE/DX =    0.0                 !
 ! A10   A(4,3,5)              106.5502         -DE/DX =    0.0                 !
 ! A11   A(4,3,6)              106.9082         -DE/DX =    0.0                 !
 ! A12   A(5,3,6)              109.3292         -DE/DX =    0.0                 !
 ! D1    D(1,2,3,4)             68.0981         -DE/DX =    0.0                 !
 ! D2    D(1,2,3,5)           -173.4466         -DE/DX =    0.0                 !
 ! D3    D(1,2,3,6)            -52.4461         -DE/DX =    0.0                 !
 ! D4    D(7,2,3,4)            -52.4461         -DE/DX =    0.0                 !
 ! D5    D(7,2,3,5)             66.0093         -DE/DX =    0.0                 !
 ! D6    D(7,2,3,6)           -172.9902         -DE/DX =    0.0                 !
 ! D7    D(8,2,3,4)           -173.4466         -DE/DX =    0.0                 !
 ! D8    D(8,2,3,5)            -54.9912         -DE/DX =    0.0                 !
 ! D9    D(8,2,3,6)             66.0093         -DE/DX =    0.0                 !
 --------------------------------------------------------------------------------
 GradGradGradGradGradGradGradGradGradGradGradGradGradGradGradGradGradGrad


 ----------------------------------------------------------------------

 Electric dipole moment (input orientation):
 (Debye = 10**-18 statcoulomb cm , SI units = C m)
                  (au)            (Debye)         (10**-30 SI)
   Tot        0.109149D+01      0.277429D+01      0.925404D+01
   x         -0.294445D+00     -0.748404D+00     -0.249641D+01
   y         -0.618227D+00     -0.157138D+01     -0.524154D+01
   z          0.849969D+00      0.216041D+01      0.720634D+01

 Dipole polarizability, Alpha (input orientation).
 (esu units = cm**3 , SI units = C**2 m**2 J**-1)
 Alpha(0;0):
               (au)            (10**-24 esu)      (10**-40 SI)
   iso        0.503179D+02      0.745634D+01      0.829630D+01
   aniso      0.141940D+02      0.210333D+01      0.234028D+01
   xx         0.494689D+02      0.733053D+01      0.815632D+01
   yx         0.662737D+01      0.982075D+00      0.109271D+01
   yy         0.485485D+02      0.719415D+01      0.800457D+01
   zx         0.421383D+01      0.624425D+00      0.694767D+00
   zy         0.352763D+00      0.522740D-01      0.581627D-01
   zz         0.529363D+02      0.784435D+01      0.872801D+01

 First dipole hyperpolarizability, Beta (input orientation).
 ||, _|_  parallel and perpendicular components, (z) with respect to z axis,
 vector components x,y,z.  Values do not include the 1/n! factor of 1/2.
 (esu units = statvolt**-1 cm**4 , SI units = C**3 m**3 J**-2)
 Beta(0;0,0):
               (au)            (10**-30 esu)      (10**-50 SI)
   || (z)     0.263316D+02      0.227485D+00      0.844287D-01
   _|_(z)     0.877721D+01      0.758282D-01      0.281429D-01
   x         -0.456088D+02     -0.394024D+00     -0.146238D+00
   y         -0.957618D+02     -0.827307D+00     -0.307047D+00
   z          0.131658D+03      0.113742D+01      0.422144D+00
   ||         0.338138D+02      0.292125D+00      0.108419D+00
   xxx        0.247299D+01      0.213647D-01      0.792931D-02
   xxy       -0.133423D+01     -0.115267D-01     -0.427801D-02
   yxy       -0.983827D+01     -0.849950D-01     -0.315450D-01
   yyy       -0.214342D+02     -0.185175D+00     -0.687258D-01
   xxz       -0.104632D+01     -0.903938D-02     -0.335488D-02
   yxz        0.595812D+01      0.514735D-01      0.191039D-01
   yyz        0.103880D+02      0.897442D-01      0.333077D-01
   zxz       -0.783765D+01     -0.677112D-01     -0.251303D-01
   zyz       -0.915216D+01     -0.790675D-01     -0.293451D-01
   zzz        0.345444D+02      0.298436D+00      0.110762D+00

 ----------------------------------------------------------------------

 Dipole orientation:
    17         -0.18341130          0.00116865          0.01749067
     6          0.91757299          1.89430540          2.59755441
     6          3.74727159          2.24469802          2.59755441
    17          4.84825588          4.13783477          0.01749067
     1          4.31140557          3.22043238          4.32486729
     1          4.73314289          0.44184914          2.48054941
     1         -0.06829831          3.69715428          2.48054941
     1          0.35343901          0.91857104          4.32486729

 Electric dipole moment (dipole orientation):
 (Debye = 10**-18 statcoulomb cm , SI units = C m)
                  (au)            (Debye)         (10**-30 SI)
   Tot        0.109149D+01      0.277429D+01      0.925404D+01
   x          0.000000D+00      0.000000D+00      0.000000D+00
   y          0.000000D+00      0.000000D+00      0.000000D+00
   z          0.109149D+01      0.277429D+01      0.925404D+01

 Dipole polarizability, Alpha (dipole orientation).
 (esu units = cm**3 , SI units = C**2 m**2 J**-1)
 Alpha(0;0):
               (au)            (10**-24 esu)      (10**-40 SI)
   iso        0.503179D+02      0.745634D+01      0.829630D+01
   aniso      0.141940D+02      0.210333D+01      0.234028D+01
   xx         0.507865D+02      0.752579D+01      0.837357D+01
   yx         0.810559D+01      0.120112D+01      0.133643D+01
   yy         0.489472D+02      0.725323D+01      0.807030D+01
   zx         0.000000D+00      0.000000D+00      0.000000D+00
   zy         0.000000D+00      0.000000D+00      0.000000D+00
   zz         0.512200D+02      0.759001D+01      0.844503D+01

 First dipole hyperpolarizability, Beta (dipole orientation).
 ||, _|_  parallel and perpendicular components, (z) with respect to z axis,
 vector components x,y,z.  Values do not include the 1/n! factor of 1/2.
 (esu units = statvolt**-1 cm**4 , SI units = C**3 m**3 J**-2)
 Beta(0;0,0):
               (au)            (10**-30 esu)      (10**-50 SI)
   || (z)     0.338138D+02      0.292125D+00      0.108419D+00
   _|_(z)     0.112713D+02      0.973750D-01      0.361398D-01
   x          0.000000D+00      0.000000D+00      0.000000D+00
   y          0.000000D+00      0.000000D+00      0.000000D+00
   z          0.169069D+03      0.146062D+01      0.542096D+00
   ||         0.338138D+02      0.292125D+00      0.108419D+00
   xxx        0.000000D+00      0.000000D+00      0.000000D+00
   xxy        0.000000D+00      0.000000D+00      0.000000D+00
   yxy        0.000000D+00      0.000000D+00      0.000000D+00
   yyy        0.000000D+00      0.000000D+00      0.000000D+00
   xxz       -0.383335D+01     -0.331171D-01     -0.122911D-01
   yxz        0.475951D+01      0.411184D-01      0.152607D-01
   yyz        0.121729D+02      0.105164D+00      0.390307D-01
   zxz        0.000000D+00      0.000000D+00      0.000000D+00
   zyz        0.000000D+00      0.000000D+00      0.000000D+00
   zzz        0.480168D+02      0.414828D+00      0.153959D+00

 ----------------------------------------------------------------------
 Unable to Open any file for archive entry.
 1\1\GINC-C0004\Freq\RAPFD\6-311+G(2d,p)\C2H4Cl2\WEBMO\08-Sep-2026\0\\#
 N Geom=AllCheck Guess=TCheck SCRF=Check GenChk RAPFD/6-311+G(2d,p) Fre
 q\\C2H4Cl2\\0,1\Cl,-0.0956361685,0.0036018231,-0.0186246376\C,0.008774
 0106,0.0013495759,1.7691733003\C,1.4289946466,0.0246956726,2.278144367
 7\Cl,2.2700288279,1.5690846842,1.9395411904\H,1.4243743231,-0.09546623
 34,3.3629287437\H,2.0280066938,-0.7670051268,1.8302981477\H,-0.5568323
 901,0.8631900273,2.1205879571\H,-0.4797640719,-0.9139409819,2.10798166
 84\\Version=ES64L-G16RevC.02\State=1-A\HF=-998.7950088\RMSD=3.524e-09\
 RMSF=2.020e-05\ZeroPoint=0.057959\Thermal=0.0627785\ETot=-998.7322303\
 HTot=-998.7312861\GTot=-998.7654737\Dipole=-0.2944449,-0.6182267,0.849
 9695\DipoleDeriv=-0.1867241,0.0051128,-0.0555719,0.0105677,-0.1355976,
 -0.0131462,-0.1481491,-0.02904,-0.5365556,0.0847547,-0.0201394,0.09511
 93,-0.0754056,0.0297531,-0.0072059,0.2288911,0.0780214,0.7682542,0.332
 4439,0.3021383,-0.0002321,0.3725752,0.5550853,0.0006515,-0.1229693,-0.
 0898312,-0.0047672,-0.3155146,-0.1563993,-0.0076688,-0.2302275,-0.4125
 271,0.0019349,0.0351769,0.0415145,-0.1308356,0.0112002,-0.0659311,-0.0
 306982,-0.0656504,0.0085273,0.021776,0.0017429,0.0538975,-0.0586807,0.
 0104158,-0.0180026,0.0060779,-0.0209328,-0.0741568,-0.0199981,0.047305
 3,-0.0317204,0.0788097,0.0505618,0.0262659,-0.0000105,0.066936,0.02630
 06,-0.0431064,-0.0137878,-0.0444579,-0.0617938,0.0128623,-0.0730447,-0
 .0070156,-0.0578627,0.0026153,0.0590942,-0.0282099,0.0216162,-0.054430
 9\Polar=49.4688894,6.6273707,48.5485066,4.2138292,0.3527626,52.9362801
 \PolarDeriv=-1.9315066,-0.2669249,-0.1514077,-3.4080704,0.2351566,0.02
 83759,0.6538114,-1.1853157,-0.7132019,0.3842385,-3.6324644,0.27473,-2.
 0410276,-0.1104044,-1.3117554,-2.6882982,-0.6430088,-12.7370764,1.7632
 445,0.4675106,3.0740241,-0.7425868,0.1697712,1.2413215,0.554779,4.8146
 461,1.5503717,0.0136229,-2.4799591,-0.0582692,-0.699437,-0.2012109,-2.
 3147435,3.3478377,0.2582326,7.0502392,-2.4806411,-0.9936558,-3.8720698
 ,0.5915852,-0.6627139,0.0886181,-1.838095,-5.3104189,-1.6517614,-0.341
 185,1.0163914,1.053487,1.393034,-0.3308963,2.0778564,-1.6026423,1.4863
 626,-6.9714612,6.2744117,3.9374821,1.6419486,-0.1669708,-0.1255346,0.6
 650096,2.9352474,4.4173292,9.4282512,0.1000779,0.0434114,1.1251235,-1.
 6112603,-0.6664654,-0.925054,2.0818932,2.8887348,-0.2147298,-0.2666865
 ,-0.5825028,0.0150565,1.2553415,0.1899307,-0.4760225,0.1435623,0.65213
 53,-0.6203118,-0.0395954,1.7230268,-1.202542,1.6239757,0.3902162,1.671
 1183,1.1550737,-2.0971859,9.9935332,2.6849436,-1.7728459,2.5239556,-0.
 3309269,0.1442823,0.4739323,-1.8324454,2.4098716,-5.4693155,-0.0174205
 ,-0.7388217,-0.9405438,-1.4390821,0.4059302,-2.0792155,0.7430525,-1.39
 59315,-0.177019,-3.1998773,1.4633369,-1.3573039,1.4489618,-0.6252548,-
 1.2647602,2.5309746,-2.3379488,3.1040462,-0.7295424,1.9349834,2.315203
 9,1.3728509,-0.5484712,1.2059815,-1.5662791,1.4120738,1.5180507,-2.843
 8882,-2.2524001,-1.8742034,1.3526663,0.6743626,-0.7564748,-3.1478342,-
 3.4602989,-5.6280782,0.6298039,2.1334323,-2.5671893,1.4009464,1.061301
 9,1.6758122,-1.4706375,-1.9092777,1.5384633\HyperPolar=2.4729943,-1.33
 4225,-9.8382681,-21.4342021,-1.0463192,5.9581166,10.3879918,-7.83765,-
 9.152158,34.5443724\Quadrupole=-0.7385391,0.3362999,0.4022392,-1.00325
 59,-1.7935123,-1.7993357\PG=C02 [X(C2H4Cl2)]\NImag=0\\0.02439567,0.000
 47976,0.02349488,0.00390812,-0.00111775,0.20617355,-0.03260577,0.00091
 770,0.00242950,0.47753512,0.00044182,-0.03502417,-0.00031444,-0.022754
 70,0.58800301,0.00149962,0.00095044,-0.13721621,-0.03918311,-0.0006896
 5,0.34999475,0.00601312,-0.00068041,0.00373603,-0.19497825,0.00970674,
 -0.03899999,0.44926510,0.00026687,0.00025228,0.00287244,0.00993011,-0.
 07383204,-0.00568539,-0.09288228,0.41814582,-0.02126279,0.00058190,-0.
 02064475,-0.03843073,-0.00384535,-0.07948192,-0.03269723,0.04402043,0.
 54812196,0.00023333,-0.00019844,-0.00032125,-0.00585806,-0.02546211,0.
 00985367,-0.05032366,-0.03777099,0.01032242,0.05924158,0.00036197,0.00
 074746,-0.00120598,-0.00457341,-0.00960936,0.00520191,-0.03631798,-0.1
 1532975,0.01957500,0.07023956,0.16281806,-0.00147480,-0.00201028,0.001
 51657,-0.00064072,-0.00399669,0.00108808,0.01079552,0.02017168,-0.0391
 9275,-0.01621879,-0.03355097,0.03200445,-0.00450949,0.00006300,-0.0048
 2991,0.00077410,0.00256102,-0.02884168,-0.04779200,0.00598145,0.001152
 93,-0.00361305,-0.00961360,0.01223051,0.05245078,-0.00073662,0.0009767
 2,-0.00090538,0.00156867,0.00026332,0.00113671,0.00596490,-0.04271419,
 0.02518272,-0.00856849,-0.01620723,0.02399460,0.00300106,0.05275966,-0
 .00183463,0.00007437,0.00101347,0.00020734,-0.00015319,-0.01168090,0.0
 0057481,0.02402204,-0.31925048,0.00127702,0.00227234,0.00072577,0.0017
 9060,-0.02729882,0.33910383,0.00166048,-0.00054188,0.00031599,-0.01883
 074,0.02392553,0.01338417,-0.13026677,0.11407579,0.06297708,0.00359727
 ,-0.01859835,-0.00366286,0.00121089,-0.00080583,-0.00117161,0.14703050
 ,-0.00028871,0.00009807,0.00020764,0.00040547,0.00276585,0.00039991,0.
 11679269,-0.18631270,-0.08631655,0.00135362,-0.02624948,-0.00449713,-0
 .00203311,0.00474894,0.00120810,-0.11634344,0.20360780,0.00027846,0.00
 062700,0.00175718,-0.00931256,0.00970981,0.00406850,0.06500342,-0.0877
 0784,-0.09903914,-0.00191464,0.00968865,0.00341433,0.01756641,-0.02184
 413,-0.01064710,-0.06940534,0.08946264,0.10067391,0.00261170,-0.002211
 69,-0.00250351,-0.12198388,0.11273620,0.04520785,-0.01896123,0.0261242
 9,0.00965944,0.00185476,0.00025492,0.00027875,0.00054295,-0.00035077,-
 0.00024195,-0.00487311,-0.00066266,-0.00293878,0.13208426,-0.00238335,
 0.00465509,0.00275101,0.11568649,-0.22796282,-0.07022973,-0.00281469,0
 .00119654,0.00108404,0.00009949,0.00172964,0.00018637,0.00068546,-0.00
 015291,0.00033194,-0.00133690,0.00103971,0.00028397,-0.12391810,0.2376
 8970,0.01013552,-0.01828703,-0.02650468,0.04730355,-0.07080166,-0.0656
 7191,-0.00579999,0.00994691,0.00576830,0.00038738,-0.00026686,-0.00006
 868,0.00073740,0.00017344,0.00036133,-0.00254890,-0.00084371,-0.000205
 76,-0.04451833,0.07299305,0.08153825,0.00220096,0.00217197,-0.00273496
 ,-0.10405251,-0.10115448,0.03707946,-0.01295632,-0.02572525,0.00827887
 ,-0.00513217,-0.00175310,-0.00130760,0.00093583,-0.00007290,-0.0006015
 8,0.00047149,0.00077614,0.00072304,0.00872455,0.01398160,-0.00569662,0
 .10980817,0.00185827,0.00479966,-0.00228753,-0.10118033,-0.24460378,0.
 06891579,0.00023105,-0.00140596,-0.00028220,0.00030737,0.00210066,-0.0
 0029757,-0.00064527,0.00032568,-0.00045677,-0.00037492,0.00030180,-0.0
 0022012,-0.01197217,-0.01819496,0.00708586,0.11177602,0.25667690,0.008
 75051,0.01918136,-0.02609513,0.03762674,0.07009116,-0.06110038,-0.0026
 1257,-0.00764026,0.00371879,-0.00338581,-0.00171410,0.00051222,0.00019
 374,-0.00043915,0.00037407,0.00011146,0.00037910,-0.00002192,-0.004943
 46,-0.00740066,0.00478314,-0.03574061,-0.07245746,0.07782920\\-0.00000
 709,0.00001210,-0.00002474,0.00005215,-0.00002129,0.00001775,-0.000058
 53,0.00000790,0.00000064,0.00002015,0.00001533,-0.00001296,-0.00001709
 ,-0.00001627,0.00000119,-0.00000474,0.00000428,-0.00000156,0.00000601,
 -0.00000161,-0.00000212,0.00000913,-0.00000044,0.00002179\\\@
 The archive entry for this job was punched.


            ARSENIC

 FOR SMELTER FUMES HAVE I BEEN NAMED,
    I AM AN EVIL POISONOUS SMOKE...
 BUT WHEN FROM POISON I AM FREED,
    THROUGH ART AND SLEIGHT OF HAND,
 THEN CAN I CURE BOTH MAN AND BEAST,
    FROM DIRE DISEASE OFTTIMES DIRECT THEM;
 BUT PREPARE ME CORRECTLY, AND TAKE GREAT CARE
    THAT YOU FAITHFULLY KEEP WATCHFUL GUARD OVER ME;
 FOR ELSE I AM POISON, AND POISON REMAIN,
    THAT PIERCES THE HEART OF MANY A ONE.

 ATTRIBUTED TO THE PROBABLY MYTHICAL 15TH
 CENTURY MONK, BASILIUS VALENTINUS
 Job cpu time:       0 days  0 hours  3 minutes 13.8 seconds.
 Elapsed time:       0 days  0 hours  0 minutes  9.6 seconds.
 File lengths (MBytes):  RWF=     20 Int=      0 D2E=      0 Chk=      3 Scr=      1
 Normal termination of Gaussian 16 at Tue Sep  8 12:07:05 2026.
