 Entering Gaussian System, Link 0=/apps/gaussian/g16c02/g16/g16
 Initial command:
 /apps/gaussian/g16c02/g16/l1.exe "/tmp/webmo-2/138062/Gau-3502112.inp" -scrdir="/tmp/webmo-2/138062/"
 Entering Link 1 = /apps/gaussian/g16c02/g16/l1.exe PID=   3502114.
  
 Copyright (c) 1988-2021, Gaussian, Inc.  All Rights Reserved.
  
 This is part of the Gaussian(R) 16 program.  It is based on
 the Gaussian(R) 09 system (copyright 2009, Gaussian, Inc.),
 the Gaussian(R) 03 system (copyright 2003, Gaussian, Inc.),
 the Gaussian(R) 98 system (copyright 1998, Gaussian, Inc.),
 the Gaussian(R) 94 system (copyright 1995, Gaussian, Inc.),
 the Gaussian 92(TM) system (copyright 1992, Gaussian, Inc.),
 the Gaussian 90(TM) system (copyright 1990, Gaussian, Inc.),
 the Gaussian 88(TM) system (copyright 1988, Gaussian, Inc.),
 the Gaussian 86(TM) system (copyright 1986, Carnegie Mellon
 University), and the Gaussian 82(TM) system (copyright 1983,
 Carnegie Mellon University). Gaussian is a federally registered
 trademark of Gaussian, Inc.
  
 This software contains proprietary and confidential information,
 including trade secrets, belonging to Gaussian, Inc.
  
 This software is provided under written license and may be
 used, copied, transmitted, or stored only in accord with that
 written license.
  
 The following legend is applicable only to US Government
 contracts under FAR:
  
                    RESTRICTED RIGHTS LEGEND
  
 Use, reproduction and disclosure by the US Government is
 subject to restrictions as set forth in subparagraphs (a)
 and (c) of the Commercial Computer Software - Restricted
 Rights clause in FAR 52.227-19.
  
 Gaussian, Inc.
 340 Quinnipiac St., Bldg. 40, Wallingford CT 06492
  
  
 ---------------------------------------------------------------
 Warning -- This program may not be used in any manner that
 competes with the business of Gaussian, Inc. or will provide
 assistance to any competitor of Gaussian, Inc.  The licensee
 of this program is prohibited from giving any competitor of
 Gaussian, Inc. access to this program.  By using this program,
 the user acknowledges that Gaussian, Inc. is engaged in the
 business of creating and licensing software in the field of
 computational chemistry and represents and warrants to the
 licensee that it is not a competitor of Gaussian, Inc. and that
 it will not use this program in any manner prohibited above.
 ---------------------------------------------------------------
  

 Cite this work as:
 Gaussian 16, Revision C.02,
 M. J. Frisch, G. W. Trucks, H. B. Schlegel, G. E. Scuseria, 
 M. A. Robb, J. R. Cheeseman, G. Scalmani, V. Barone, 
 G. A. Petersson, H. Nakatsuji, X. Li, M. Caricato, A. V. Marenich, 
 J. Bloino, B. G. Janesko, R. Gomperts, B. Mennucci, H. P. Hratchian, 
 J. V. Ortiz, A. F. Izmaylov, J. L. Sonnenberg, D. Williams-Young, 
 F. Ding, F. Lipparini, F. Egidi, J. Goings, B. Peng, A. Petrone, 
 T. Henderson, D. Ranasinghe, V. G. Zakrzewski, J. Gao, N. Rega, 
 G. Zheng, W. Liang, M. Hada, M. Ehara, K. Toyota, R. Fukuda, 
 J. Hasegawa, M. Ishida, T. Nakajima, Y. Honda, O. Kitao, H. Nakai, 
 T. Vreven, K. Throssell, J. A. Montgomery, Jr., J. E. Peralta, 
 F. Ogliaro, M. J. Bearpark, J. J. Heyd, E. N. Brothers, K. N. Kudin, 
 V. N. Staroverov, T. A. Keith, R. Kobayashi, J. Normand, 
 K. Raghavachari, A. P. Rendell, J. C. Burant, S. S. Iyengar, 
 J. Tomasi, M. Cossi, J. M. Millam, M. Klene, C. Adamo, R. Cammi, 
 J. W. Ochterski, R. L. Martin, K. Morokuma, O. Farkas, 
 J. B. Foresman, and D. J. Fox, Gaussian, Inc., Wallingford CT, 2019.
 
 ******************************************
 Gaussian 16:  ES64L-G16RevC.02  7-Dec-2021
                 8-Sep-2026 
 ******************************************
 %NProcShared=28
 Will use up to   28 processors via shared memory.
 %CHK=output.chk
 ----------------------------------------------------------------
 #N APFD/6-311+G(2d,p) Opt Freq=(Raman,hpmodes) Geom=Connectivity
 ----------------------------------------------------------------
 1/18=20,19=15,26=3,38=1,57=2/1,3;
 2/9=110,12=2,17=6,18=5,40=1/2;
 3/5=4,6=6,7=112,11=2,25=1,30=1,71=1,74=-44/1,2,3;
 4//1;
 5/5=2,38=5/2;
 6/7=2,8=2,9=2,10=2,28=1/1;
 7//1,2,3,16;
 1/18=20,19=15,26=3/3(2);
 2/9=110/2;
 99//99;
 2/9=110/2;
 3/5=4,6=6,7=112,11=2,25=1,30=1,71=1,74=-44/1,2,3;
 4/5=5,16=3,69=1/1;
 5/5=2,38=5/2;
 7//1,2,3,16;
 1/18=20,19=15,26=3/3(-5);
 2/9=110/2;
 6/7=2,8=2,9=2,10=2,19=2,28=1/1;
 99/9=1/99;
 -------
 C2H4Cl2
 -------
 Symbolic Z-matrix:
 Charge =  0 Multiplicity = 1
 Cl
 C                    1    B1
 C                    2    B2       1    A1
 Cl                   3    B3       2    A2       1    D1       0
 H                    3    B4       4    A3       2    D2       0
 H                    3    B5       4    A4       2    D3       0
 H                    2    B6       1    A5       3    D4       0
 H                    2    B7       1    A6       3    D5       0
       Variables:
  B1                    1.82491                  
  B2                    1.50985                  
  B3                    1.82491                  
  B4                    1.08586                  
  B5                    1.08586                  
  B6                    1.08586                  
  B7                    1.08586                  
  A1                  108.70769                  
  A2                  108.70769                  
  A3                  106.43802                  
  A4                  106.43802                  
  A5                  106.43802                  
  A6                  106.43802                  
  D1                 -180.                       
  D2                 -121.10879                  
  D3                  121.10879                  
  D4                  121.10879                  
  D5                 -121.10879                  
 

 GradGradGradGradGradGradGradGradGradGradGradGradGradGradGradGradGradGrad
 Berny optimization.
 Initialization pass.
                           ----------------------------
                           !    Initial Parameters    !
                           ! (Angstroms and Degrees)  !
 --------------------------                            --------------------------
 ! Name  Definition              Value          Derivative Info.                !
 --------------------------------------------------------------------------------
 ! R1    R(1,2)                  1.8249         estimate D2E/DX2                !
 ! R2    R(2,3)                  1.5098         estimate D2E/DX2                !
 ! R3    R(2,7)                  1.0859         estimate D2E/DX2                !
 ! R4    R(2,8)                  1.0859         estimate D2E/DX2                !
 ! R5    R(3,4)                  1.8249         estimate D2E/DX2                !
 ! R6    R(3,5)                  1.0859         estimate D2E/DX2                !
 ! R7    R(3,6)                  1.0859         estimate D2E/DX2                !
 ! A1    A(1,2,3)              108.7077         estimate D2E/DX2                !
 ! A2    A(1,2,7)              106.438          estimate D2E/DX2                !
 ! A3    A(1,2,8)              106.438          estimate D2E/DX2                !
 ! A4    A(3,2,7)              112.2472         estimate D2E/DX2                !
 ! A5    A(3,2,8)              112.2472         estimate D2E/DX2                !
 ! A6    A(7,2,8)              110.4087         estimate D2E/DX2                !
 ! A7    A(2,3,4)              108.7077         estimate D2E/DX2                !
 ! A8    A(2,3,5)              112.2472         estimate D2E/DX2                !
 ! A9    A(2,3,6)              112.2472         estimate D2E/DX2                !
 ! A10   A(4,3,5)              106.438          estimate D2E/DX2                !
 ! A11   A(4,3,6)              106.438          estimate D2E/DX2                !
 ! A12   A(5,3,6)              110.4087         estimate D2E/DX2                !
 ! D1    D(1,2,3,4)            180.0            estimate D2E/DX2                !
 ! D2    D(1,2,3,5)            -62.5284         estimate D2E/DX2                !
 ! D3    D(1,2,3,6)             62.5284         estimate D2E/DX2                !
 ! D4    D(7,2,3,4)             62.5284         estimate D2E/DX2                !
 ! D5    D(7,2,3,5)            180.0            estimate D2E/DX2                !
 ! D6    D(7,2,3,6)            -54.9433         estimate D2E/DX2                !
 ! D7    D(8,2,3,4)            -62.5284         estimate D2E/DX2                !
 ! D8    D(8,2,3,5)             54.9433         estimate D2E/DX2                !
 ! D9    D(8,2,3,6)            180.0            estimate D2E/DX2                !
 --------------------------------------------------------------------------------
 Trust Radius=3.00D-01 FncErr=1.00D-07 GrdErr=1.00D-06 EigMax=2.50D+02 EigMin=1.00D-04
 Number of steps in this run=     38 maximum allowed number of steps=    100.
 GradGradGradGradGradGradGradGradGradGradGradGradGradGradGradGradGradGrad

                          Input orientation:                          
 ---------------------------------------------------------------------
 Center     Atomic      Atomic             Coordinates (Angstroms)
 Number     Number       Type             X           Y           Z
 ---------------------------------------------------------------------
      1         17           0        0.000000    0.000000    0.000000
      2          6           0        0.000000    0.000000    1.824909
      3          6           0        1.430079    0.000000    2.309178
      4         17           0        1.430079    0.000000    4.134086
      5          1           0        1.968171   -0.891696    2.001904
      6          1           0        1.968171    0.891696    2.001904
      7          1           0       -0.538092    0.891696    2.132182
      8          1           0       -0.538092   -0.891696    2.132182
 ---------------------------------------------------------------------
                    Distance matrix (angstroms):
                    1          2          3          4          5
     1  Cl   0.000000
     2  C    1.824909   0.000000
     3  C    2.716142   1.509849   0.000000
     4  Cl   4.374448   2.716142   1.824909   0.000000
     5  H    2.945580   2.167983   1.085856   2.372944   0.000000
     6  H    2.945580   2.167983   1.085856   2.372944   1.783393
     7  H    2.372944   1.085856   2.167983   2.945580   3.078769
     8  H    2.372944   1.085856   2.167983   2.945580   2.509647
                    6          7          8
     6  H    0.000000
     7  H    2.509647   0.000000
     8  H    3.078769   1.783393   0.000000
 Stoichiometry    C2H4Cl2
 Framework group  C2H[SGH(C2Cl2),X(H4)]
 Deg. of freedom     6
 Full point group                 C2H     NOp   4
 Largest Abelian subgroup         C2H     NOp   4
 Largest concise Abelian subgroup C2H     NOp   4
                         Standard orientation:                         
 ---------------------------------------------------------------------
 Center     Atomic      Atomic             Coordinates (Angstroms)
 Number     Number       Type             X           Y           Z
 ---------------------------------------------------------------------
      1         17           0        0.715040    2.067043    0.000000
      2          6           0        0.715040    0.242134    0.000000
      3          6           0       -0.715040   -0.242134    0.000000
      4         17           0       -0.715040   -2.067043    0.000000
      5          1           0       -1.253132    0.065139    0.891696
      6          1           0       -1.253132    0.065139   -0.891696
      7          1           0        1.253132   -0.065139   -0.891696
      8          1           0        1.253132   -0.065139    0.891696
 ---------------------------------------------------------------------
 Rotational constants (GHZ):          29.0538919           1.4707492           1.4251930
 Standard basis: 6-311+G(2d,p) (5D, 7F)
 There are    54 symmetry adapted cartesian basis functions of AG  symmetry.
 There are    24 symmetry adapted cartesian basis functions of BG  symmetry.
 There are    24 symmetry adapted cartesian basis functions of AU  symmetry.
 There are    54 symmetry adapted cartesian basis functions of BU  symmetry.
 There are    50 symmetry adapted basis functions of AG  symmetry.
 There are    24 symmetry adapted basis functions of BG  symmetry.
 There are    24 symmetry adapted basis functions of AU  symmetry.
 There are    50 symmetry adapted basis functions of BU  symmetry.
   148 basis functions,   234 primitive gaussians,   156 cartesian basis functions
    25 alpha electrons       25 beta electrons
       nuclear repulsion energy       192.7709285880 Hartrees.
 NAtoms=    8 NActive=    8 NUniq=    3 SFac= 4.00D+00 NAtFMM=   60 NAOKFM=F Big=F
 Integral buffers will be    131072 words long.
 Raffenetti 2 integral format.
 Two-electron integral symmetry is turned on.
 R6APFD:  NTU= -4 IXU= 1 FactS= 1.050
 Nuclear repulsion after empirical dispersion term =      192.7686692226 Hartrees.
 One-electron integrals computed using PRISM.
 NBasis=   148 RedAO= T EigKep=  6.78D-05  NBF=    50    24    24    50
 NBsUse=   148 1.00D-06 EigRej= -1.00D+00 NBFU=    50    24    24    50
 ExpMin= 4.38D-02 ExpMax= 1.06D+05 ExpMxC= 3.62D+03 IAcc=3 IRadAn=         5 AccDes= 0.00D+00
 Harris functional with IExCor= 3731 and IRadAn=       5 diagonalized for initial guess.
 HarFok:  IExCor= 3731 AccDes= 0.00D+00 IRadAn=         5 IDoV= 1 UseB2=F ITyADJ=14
 ICtDFT=  3500011 ScaDFX=  1.000000  1.000000  1.000000  1.000000
 FoFCou: FMM=F IPFlag=           0 FMFlag=      100000 FMFlg1=           0
         NFxFlg=           0 DoJE=T BraDBF=F KetDBF=T FulRan=T
         wScrn=  0.000000 ICntrl=       500 IOpCl=  0 I1Cent=   200000004 NGrid=           0
         NMat0=    1 NMatS0=      1 NMatT0=    0 NMatD0=    1 NMtDS0=    0 NMtDT0=    0
 Petite list used in FoFCou.
 Initial guess orbital symmetries:
       Occupied  (BU) (AG) (AG) (BU) (BU) (AG) (BU) (AG) (AG) (BU)
                 (AU) (BG) (AG) (BU) (AG) (BU) (AU) (AG) (BG) (BU)
                 (AG) (BU) (BG) (AG) (AU)
       Virtual   (AG) (BU) (BU) (AU) (AG) (AG) (BU) (BG) (AG) (BG)
                 (BU) (AG) (BU) (AU) (BU) (AU) (AG) (BG) (AG) (BU)
                 (BU) (AG) (BU) (AU) (AG) (BG) (BU) (AG) (AU) (BU)
                 (AG) (BU) (AG) (BG) (BG) (AU) (BU) (AG) (BU) (AU)
                 (BU) (AU) (BG) (AG) (BU) (AG) (AG) (BU) (AG) (BG)
                 (AU) (BG) (BU) (BU) (AG) (BG) (AU) (BU) (AG) (BU)
                 (AG) (AG) (BU) (BG) (AU) (BU) (AG) (AU) (BG) (AG)
                 (BG) (BU) (AU) (AG) (BU) (AU) (BU) (AG) (BG) (AU)
                 (AG) (AG) (BG) (BU) (AU) (BU) (BU) (AG) (BG) (BU)
                 (AU) (AG) (AG) (BU) (BG) (AG) (BG) (AU) (AG) (BU)
                 (AU) (BG) (BU) (AG) (BU) (AG) (AG) (BU) (AU) (BG)
                 (BU) (AG) (BU) (AG) (BU) (BG) (BU) (AU) (AG) (BU)
                 (AG) (AG) (BU)
 The electronic state of the initial guess is 1-AG.
 Keep R1 ints in memory in symmetry-blocked form, NReq=88388403.
 Requested convergence on RMS density matrix=1.00D-08 within 128 cycles.
 Requested convergence on MAX density matrix=1.00D-06.
 Requested convergence on             energy=1.00D-06.
 No special actions if energy rises.
 SCF Done:  E(RAPFD) =  -998.796320302     A.U. after   11 cycles
            NFock= 11  Conv=0.10D-08     -V/T= 2.0024

 **********************************************************************

            Population analysis using the SCF Density.

 **********************************************************************

 Orbital symmetries:
       Occupied  (BU) (AG) (AG) (BU) (BU) (AG) (BU) (AG) (BU) (AG)
                 (AU) (BG) (AG) (BU) (AG) (BU) (AU) (BU) (AG) (BG)
                 (AG) (BU) (BG) (AU) (AG)
       Virtual   (BU) (AG) (AG) (BU) (AU) (BU) (AG) (BG) (AG) (BG)
                 (AG) (BU) (BU) (AU) (BU) (AU) (AG) (BG) (AG) (BU)
                 (BU) (AG) (BU) (AU) (BU) (BG) (AG) (AG) (AU) (BU)
                 (AG) (BG) (AG) (BG) (BU) (AU) (BU) (AG) (BU) (AU)
                 (BU) (AU) (BG) (AG) (AG) (BU) (BU) (AG) (AG) (BG)
                 (AU) (BG) (BU) (BU) (AG) (BG) (BU) (AU) (AG) (AG)
                 (BU) (AG) (BU) (BG) (AU) (BU) (AG) (AU) (BG) (AG)
                 (BG) (BU) (AU) (AG) (BU) (AU) (AG) (BU) (BG) (AU)
                 (AG) (AG) (BG) (BU) (AU) (BU) (BU) (AG) (BG) (BU)
                 (AG) (AU) (AG) (BU) (BG) (AG) (BG) (AU) (AG) (BU)
                 (AU) (BG) (BU) (AG) (BU) (AG) (AG) (BU) (AU) (BG)
                 (BU) (AG) (BU) (AG) (BU) (BG) (BU) (AU) (AG) (BU)
                 (AG) (AG) (BU)
 The electronic state is 1-AG.
 Alpha  occ. eigenvalues -- -101.65211-101.65211 -10.27972 -10.27945  -9.51271
 Alpha  occ. eigenvalues --   -9.51269  -7.25956  -7.25956  -7.24992  -7.24992
 Alpha  occ. eigenvalues --   -7.24967  -7.24967  -0.90531  -0.86235  -0.74795
 Alpha  occ. eigenvalues --   -0.65101  -0.52389  -0.47232  -0.46447  -0.43032
 Alpha  occ. eigenvalues --   -0.40509  -0.33307  -0.32344  -0.32022  -0.31896
 Alpha virt. eigenvalues --   -0.02007   0.00260   0.02978   0.03237   0.04258
 Alpha virt. eigenvalues --    0.05102   0.06842   0.07791   0.09060   0.09428
 Alpha virt. eigenvalues --    0.09705   0.10098   0.12134   0.12448   0.12902
 Alpha virt. eigenvalues --    0.15829   0.16559   0.18939   0.19468   0.21152
 Alpha virt. eigenvalues --    0.22031   0.22999   0.24462   0.36175   0.37050
 Alpha virt. eigenvalues --    0.37473   0.37819   0.40082   0.41109   0.43109
 Alpha virt. eigenvalues --    0.44507   0.45517   0.46321   0.46557   0.46800
 Alpha virt. eigenvalues --    0.47474   0.49234   0.49551   0.51648   0.53697
 Alpha virt. eigenvalues --    0.58169   0.59513   0.61865   0.63545   0.66420
 Alpha virt. eigenvalues --    0.67777   0.73356   0.74801   0.78103   0.79597
 Alpha virt. eigenvalues --    0.85552   0.88407   0.90225   0.97434   0.98426
 Alpha virt. eigenvalues --    1.04444   1.14424   1.15752   1.17822   1.23388
 Alpha virt. eigenvalues --    1.23698   1.29113   1.37957   1.59782   1.62570
 Alpha virt. eigenvalues --    1.78168   1.82002   1.91001   2.05754   2.10567
 Alpha virt. eigenvalues --    2.16466   2.18409   2.23803   2.27357   2.30280
 Alpha virt. eigenvalues --    2.35261   2.35340   2.35748   2.36391   2.37719
 Alpha virt. eigenvalues --    2.39323   2.42026   2.43702   2.44081   2.46767
 Alpha virt. eigenvalues --    2.47150   2.51230   2.57038   2.60646   2.66214
 Alpha virt. eigenvalues --    2.69082   2.70067   2.76902   2.77598   2.80895
 Alpha virt. eigenvalues --    3.07981   3.19287   3.23696   3.25193   3.25295
 Alpha virt. eigenvalues --    3.41746   3.42187   3.43518   3.47226   3.49158
 Alpha virt. eigenvalues --    3.55043   3.67419   3.81947   4.18729   4.18912
 Alpha virt. eigenvalues --    4.40559   9.75773   9.83261  23.87305  23.89468
 Alpha virt. eigenvalues --   25.89263  25.95088  25.97069  25.99962  26.94723
 Alpha virt. eigenvalues --   26.96093 215.87917 215.95974
          Condensed to atoms (all electrons):
               1          2          3          4          5          6
     1  Cl  16.775625   0.267435  -0.025022   0.011830   0.004384   0.004384
     2  C    0.267435   5.357892   0.091062  -0.025022  -0.057359  -0.057359
     3  C   -0.025022   0.091062   5.357892   0.267435   0.426600   0.426600
     4  Cl   0.011830  -0.025022   0.267435  16.775625  -0.045148  -0.045148
     5  H    0.004384  -0.057359   0.426600  -0.045148   0.519273  -0.036153
     6  H    0.004384  -0.057359   0.426600  -0.045148  -0.036153   0.519273
     7  H   -0.045148   0.426600  -0.057359   0.004384   0.005848  -0.006539
     8  H   -0.045148   0.426600  -0.057359   0.004384  -0.006539   0.005848
               7          8
     1  Cl  -0.045148  -0.045148
     2  C    0.426600   0.426600
     3  C   -0.057359  -0.057359
     4  Cl   0.004384   0.004384
     5  H    0.005848  -0.006539
     6  H   -0.006539   0.005848
     7  H    0.519273  -0.036153
     8  H   -0.036153   0.519273
 Mulliken charges:
               1
     1  Cl   0.051660
     2  C   -0.429849
     3  C   -0.429849
     4  Cl   0.051660
     5  H    0.189095
     6  H    0.189095
     7  H    0.189095
     8  H    0.189095
 Sum of Mulliken charges =  -0.00000
 Mulliken charges with hydrogens summed into heavy atoms:
               1
     1  Cl   0.051660
     2  C   -0.051660
     3  C   -0.051660
     4  Cl   0.051660
 Electronic spatial extent (au):  <R**2>=            728.7155
 Charge=             -0.0000 electrons
 Dipole moment (field-independent basis, Debye):
    X=              0.0000    Y=             -0.0000    Z=              0.0000  Tot=              0.0000
 Quadrupole moment (field-independent basis, Debye-Ang):
   XX=            -37.8280   YY=            -44.8591   ZZ=            -37.8210
   XY=             -2.5731   XZ=              0.0000   YZ=              0.0000
 Traceless Quadrupole moment (field-independent basis, Debye-Ang):
   XX=              2.3414   YY=             -4.6898   ZZ=              2.3484
   XY=             -2.5731   XZ=              0.0000   YZ=              0.0000
 Octapole moment (field-independent basis, Debye-Ang**2):
  XXX=              0.0000  YYY=             -0.0000  ZZZ=             -0.0000  XYY=             -0.0000
  XXY=             -0.0000  XXZ=              0.0000  XZZ=              0.0000  YZZ=              0.0000
  YYZ=              0.0000  XYZ=              0.0000
 Hexadecapole moment (field-independent basis, Debye-Ang**3):
 XXXX=           -181.0855 YYYY=           -677.1781 ZZZZ=            -55.5105 XXXY=           -124.1806
 XXXZ=              0.0000 YYYX=           -118.8630 YYYZ=              0.0000 ZZZX=              0.0000
 ZZZY=              0.0000 XXYY=           -155.2614 XXZZ=            -36.1847 YYZZ=           -132.6929
 XXYZ=              0.0000 YYXZ=              0.0000 ZZXY=            -41.3900
 N-N= 1.927686692226D+02 E-N=-2.755533507460D+03  KE= 9.964059733612D+02
 Symmetry AG   KE= 4.520610318029D+02
 Symmetry BG   KE= 4.789717189765D+01
 Symmetry AU   KE= 4.778357767437D+01
 Symmetry BU   KE= 4.486641919863D+02
 R6APFD:  NTU= -4 IXU= 1 FactS= 1.050
 Calling FoFJK, ICntrl=      2127 FMM=F ISym2X=1 I1Cent= 0 IOpClX= 0 NMat=1 NMatS=1 NMatT=0.
 ***** Axes restored to original set *****
 -------------------------------------------------------------------
 Center     Atomic                   Forces (Hartrees/Bohr)
 Number     Number              X              Y              Z
 -------------------------------------------------------------------
      1       17           0.000519776    0.000000000    0.009532500
      2        6           0.003314256    0.000000000   -0.009381380
      3        6          -0.003314256    0.000000000    0.009381380
      4       17          -0.000519776   -0.000000000   -0.009532500
      5        1           0.000589873   -0.000812341   -0.000737584
      6        1           0.000589873    0.000812341   -0.000737584
      7        1          -0.000589873    0.000812341    0.000737584
      8        1          -0.000589873   -0.000812341    0.000737584
 -------------------------------------------------------------------
 Cartesian Forces:  Max     0.009532500 RMS     0.004012866

 GradGradGradGradGradGradGradGradGradGradGradGradGradGradGradGradGradGrad
 Berny optimization.
 FormGI is forming the generalized inverse of G from B-inverse, IUseBI=4.
 Internal  Forces:  Max     0.009532257 RMS     0.002677143
 Search for a local minimum.
 Step number   1 out of a maximum of   38
 All quantities printed in internal units (Hartrees-Bohrs-Radians)
 Mixed Optimization -- RFO/linear search
 Second derivative matrix not updated -- first step.
 ITU=  0
     Eigenvalues ---    0.00636   0.05650   0.05650   0.05982   0.05982
     Eigenvalues ---    0.16000   0.16000   0.16000   0.16000   0.22291
     Eigenvalues ---    0.22291   0.24249   0.24249   0.31366   0.35296
     Eigenvalues ---    0.35296   0.35296   0.35296
 RFO step:  Lambda=-8.13930964D-04 EMin= 6.35669045D-03
 Linear search not attempted -- first point.
 Iteration  1 RMS(Cart)=  0.01246624 RMS(Int)=  0.00001963
 Iteration  2 RMS(Cart)=  0.00003139 RMS(Int)=  0.00000097
 Iteration  3 RMS(Cart)=  0.00000000 RMS(Int)=  0.00000097
 ClnCor:  largest displacement from symmetrization is 3.68D-12 for atom     4.
 Variable       Old X    -DE/DX   Delta X   Delta X   Delta X     New X
                                 (Linear)    (Quad)   (Total)
    R1        3.44858  -0.00953   0.00000  -0.03918  -0.03918   3.40940
    R2        2.85320  -0.00304   0.00000  -0.00965  -0.00965   2.84355
    R3        2.05197   0.00117   0.00000   0.00330   0.00330   2.05527
    R4        2.05197   0.00117   0.00000   0.00330   0.00330   2.05527
    R5        3.44858  -0.00953   0.00000  -0.03918  -0.03918   3.40940
    R6        2.05197   0.00117   0.00000   0.00330   0.00330   2.05527
    R7        2.05197   0.00117   0.00000   0.00330   0.00330   2.05527
    A1        1.89731  -0.00113   0.00000  -0.00445  -0.00445   1.89285
    A2        1.85769   0.00064   0.00000   0.00408   0.00408   1.86177
    A3        1.85769   0.00064   0.00000   0.00408   0.00408   1.86177
    A4        1.95908  -0.00001   0.00000  -0.00073  -0.00073   1.95835
    A5        1.95908  -0.00001   0.00000  -0.00073  -0.00073   1.95835
    A6        1.92699  -0.00009   0.00000  -0.00177  -0.00178   1.92522
    A7        1.89731  -0.00113   0.00000  -0.00445  -0.00445   1.89285
    A8        1.95908  -0.00001   0.00000  -0.00073  -0.00073   1.95835
    A9        1.95908  -0.00001   0.00000  -0.00073  -0.00073   1.95835
   A10        1.85769   0.00064   0.00000   0.00408   0.00408   1.86177
   A11        1.85769   0.00064   0.00000   0.00408   0.00408   1.86177
   A12        1.92699  -0.00009   0.00000  -0.00177  -0.00178   1.92522
    D1        3.14159  -0.00000   0.00000  -0.00000   0.00000   3.14159
    D2       -1.09133   0.00007   0.00000   0.00176   0.00176  -1.08957
    D3        1.09133  -0.00007   0.00000  -0.00176  -0.00176   1.08957
    D4        1.09133  -0.00007   0.00000  -0.00176  -0.00176   1.08957
    D5        3.14159   0.00000   0.00000   0.00000   0.00000   3.14159
    D6       -0.95894  -0.00013   0.00000  -0.00352  -0.00352  -0.96246
    D7       -1.09133   0.00007   0.00000   0.00176   0.00176  -1.08957
    D8        0.95894   0.00013   0.00000   0.00352   0.00352   0.96246
    D9        3.14159  -0.00000   0.00000  -0.00000   0.00000   3.14159
         Item               Value     Threshold  Converged?
 Maximum Force            0.009532     0.000450     NO 
 RMS     Force            0.002677     0.000300     NO 
 Maximum Displacement     0.040448     0.001800     NO 
 RMS     Displacement     0.012454     0.001200     NO 
 Predicted change in Energy=-4.083351D-04
 GradGradGradGradGradGradGradGradGradGradGradGradGradGradGradGradGradGrad

                          Input orientation:                          
 ---------------------------------------------------------------------
 Center     Atomic      Atomic             Coordinates (Angstroms)
 Number     Number       Type             X           Y           Z
 ---------------------------------------------------------------------
      1         17           0        0.010934    0.000000    0.021404
      2          6           0        0.002476    0.000000    1.825561
      3          6           0        1.427603    0.000000    2.308526
      4         17           0        1.419145    0.000000    4.112682
      5          1           0        1.966484   -0.892579    1.999027
      6          1           0        1.966484    0.892579    1.999027
      7          1           0       -0.536405    0.892579    2.135059
      8          1           0       -0.536405   -0.892579    2.135059
 ---------------------------------------------------------------------
                    Distance matrix (angstroms):
                    1          2          3          4          5
     1  Cl   0.000000
     2  C    1.804176   0.000000
     3  C    2.690330   1.504740   0.000000
     4  Cl   4.326848   2.690330   1.804176   0.000000
     5  H    2.920936   2.164282   1.087603   2.358774   0.000000
     6  H    2.920936   2.164282   1.087603   2.358774   1.785158
     7  H    2.358774   1.087603   2.164282   2.920936   3.077296
     8  H    2.358774   1.087603   2.164282   2.920936   2.506583
                    6          7          8
     6  H    0.000000
     7  H    2.506583   0.000000
     8  H    3.077296   1.785158   0.000000
 Stoichiometry    C2H4Cl2
 Framework group  C2H[SGH(C2Cl2),X(H4)]
 Deg. of freedom     6
 Full point group                 C2H     NOp   4
 Largest Abelian subgroup         C2H     NOp   4
 Largest concise Abelian subgroup C2H     NOp   4
                         Standard orientation:                         
 ---------------------------------------------------------------------
 Center     Atomic      Atomic             Coordinates (Angstroms)
 Number     Number       Type             X           Y           Z
 ---------------------------------------------------------------------
      1         17           0        0.713688    2.042316    0.000000
      2          6           0        0.713688    0.238139    0.000000
      3          6           0       -0.713688   -0.238139    0.000000
      4         17           0       -0.713688   -2.042316   -0.000000
      5          1           0       -1.251112    0.073882    0.892579
      6          1           0       -1.251112    0.073882   -0.892579
      7          1           0        1.251112   -0.073882   -0.892579
      8          1           0        1.251112   -0.073882    0.892579
 ---------------------------------------------------------------------
 Rotational constants (GHZ):          29.1147231           1.5026754           1.4553574
 Standard basis: 6-311+G(2d,p) (5D, 7F)
 There are    54 symmetry adapted cartesian basis functions of AG  symmetry.
 There are    24 symmetry adapted cartesian basis functions of BG  symmetry.
 There are    24 symmetry adapted cartesian basis functions of AU  symmetry.
 There are    54 symmetry adapted cartesian basis functions of BU  symmetry.
 There are    50 symmetry adapted basis functions of AG  symmetry.
 There are    24 symmetry adapted basis functions of BG  symmetry.
 There are    24 symmetry adapted basis functions of AU  symmetry.
 There are    50 symmetry adapted basis functions of BU  symmetry.
   148 basis functions,   234 primitive gaussians,   156 cartesian basis functions
    25 alpha electrons       25 beta electrons
       nuclear repulsion energy       194.4449629835 Hartrees.
 NAtoms=    8 NActive=    8 NUniq=    3 SFac= 4.00D+00 NAtFMM=   60 NAOKFM=F Big=F
 Integral buffers will be    131072 words long.
 Raffenetti 2 integral format.
 Two-electron integral symmetry is turned on.
 R6APFD:  NTU= -4 IXU= 1 FactS= 1.050
 Nuclear repulsion after empirical dispersion term =      194.4426995702 Hartrees.
 One-electron integrals computed using PRISM.
 NBasis=   148 RedAO= T EigKep=  6.48D-05  NBF=    50    24    24    50
 NBsUse=   148 1.00D-06 EigRej= -1.00D+00 NBFU=    50    24    24    50
 Initial guess from the checkpoint file:  "output.chk"
 B after Tr=    -0.000000   -0.000000    0.000000
         Rot=    0.999999    0.000000    0.000000    0.001669 Ang=   0.19 deg.
 Initial guess orbital symmetries:
       Occupied  (BU) (AG) (AG) (BU) (BU) (AG) (BU) (AG) (BU) (AG)
                 (AU) (BG) (AG) (BU) (AG) (BU) (AU) (BU) (AG) (BG)
                 (AG) (BU) (BG) (AU) (AG)
       Virtual   (BU) (AG) (AG) (BU) (AU) (BU) (AG) (BG) (AG) (BG)
                 (AG) (BU) (BU) (AU) (BU) (AU) (AG) (BG) (AG) (BU)
                 (BU) (AG) (BU) (AU) (BU) (BG) (AG) (AG) (AU) (BU)
                 (AG) (BG) (AG) (BG) (BU) (AU) (BU) (AG) (BU) (AU)
                 (BU) (AU) (BG) (AG) (AG) (BU) (BU) (AG) (AG) (BG)
                 (AU) (BG) (BU) (BU) (AG) (BG) (BU) (AU) (AG) (AG)
                 (BU) (AG) (BU) (BG) (AU) (BU) (AG) (AU) (BG) (AG)
                 (BG) (BU) (AU) (AG) (BU) (AU) (AG) (BU) (BG) (AU)
                 (AG) (AG) (BG) (BU) (AU) (BU) (BU) (AG) (BG) (BU)
                 (AG) (AU) (AG) (BU) (BG) (AG) (BG) (AU) (AG) (BU)
                 (AU) (BG) (BU) (AG) (BU) (AG) (AG) (BU) (AU) (BG)
                 (BU) (AG) (BU) (AG) (BU) (BG) (BU) (AU) (AG) (BU)
                 (AG) (AG) (BU)
 ExpMin= 4.38D-02 ExpMax= 1.06D+05 ExpMxC= 3.62D+03 IAcc=3 IRadAn=         5 AccDes= 0.00D+00
 Harris functional with IExCor= 3731 and IRadAn=       5 diagonalized for initial guess.
 HarFok:  IExCor= 3731 AccDes= 0.00D+00 IRadAn=         5 IDoV= 1 UseB2=F ITyADJ=14
 ICtDFT=  3500011 ScaDFX=  1.000000  1.000000  1.000000  1.000000
 FoFCou: FMM=F IPFlag=           0 FMFlag=      100000 FMFlg1=           0
         NFxFlg=           0 DoJE=T BraDBF=F KetDBF=T FulRan=T
         wScrn=  0.000000 ICntrl=       500 IOpCl=  0 I1Cent=   200000004 NGrid=           0
         NMat0=    1 NMatS0=      1 NMatT0=    0 NMatD0=    1 NMtDS0=    0 NMtDT0=    0
 Petite list used in FoFCou.
 Keep R1 ints in memory in symmetry-blocked form, NReq=88388403.
 Requested convergence on RMS density matrix=1.00D-08 within 128 cycles.
 Requested convergence on MAX density matrix=1.00D-06.
 Requested convergence on             energy=1.00D-06.
 No special actions if energy rises.
 SCF Done:  E(RAPFD) =  -998.796799408     A.U. after    8 cycles
            NFock=  8  Conv=0.79D-08     -V/T= 2.0023
 R6APFD:  NTU= -4 IXU= 1 FactS= 1.050
 Calling FoFJK, ICntrl=      2127 FMM=F ISym2X=1 I1Cent= 0 IOpClX= 0 NMat=1 NMatS=1 NMatT=0.
 ***** Axes restored to original set *****
 -------------------------------------------------------------------
 Center     Atomic                   Forces (Hartrees/Bohr)
 Number     Number              X              Y              Z
 -------------------------------------------------------------------
      1       17          -0.000319285    0.000000000    0.001692916
      2        6           0.000188904    0.000000000   -0.006039024
      3        6          -0.000188904   -0.000000000    0.006039024
      4       17           0.000319285   -0.000000000   -0.001692916
      5        1           0.000139859    0.000125873   -0.001009073
      6        1           0.000139859   -0.000125873   -0.001009073
      7        1          -0.000139859   -0.000125873    0.001009073
      8        1          -0.000139859    0.000125873    0.001009073
 -------------------------------------------------------------------
 Cartesian Forces:  Max     0.006039024 RMS     0.001861466

 GradGradGradGradGradGradGradGradGradGradGradGradGradGradGradGradGradGrad
 Berny optimization.
 Using GEDIIS/GDIIS optimizer.
 FormGI is forming the generalized inverse of G from B-inverse, IUseBI=4.
 Internal  Forces:  Max     0.001694147 RMS     0.000739456
 Search for a local minimum.
 Step number   2 out of a maximum of   38
 All quantities printed in internal units (Hartrees-Bohrs-Radians)
 Mixed Optimization -- En-DIIS/RFO-DIIS
 Update second derivatives using D2CorX and points    1    2
 DE= -4.79D-04 DEPred=-4.08D-04 R= 1.17D+00
 TightC=F SS=  1.41D+00  RLast= 5.80D-02 DXNew= 5.0454D-01 1.7386D-01
 Trust test= 1.17D+00 RLast= 5.80D-02 DXMaxT set to 3.00D-01
 ITU=  1  0
 Use linear search instead of GDIIS.
     Eigenvalues ---    0.00636   0.05183   0.05668   0.06004   0.06004
     Eigenvalues ---    0.15565   0.16000   0.16000   0.16000   0.19340
     Eigenvalues ---    0.22296   0.24249   0.24848   0.33516   0.35209
     Eigenvalues ---    0.35296   0.35296   0.35296
 RFO step:  Lambda=-1.42080322D-04 EMin= 6.35669045D-03
 Quartic linear search produced a step of  0.17741.
 Iteration  1 RMS(Cart)=  0.00397748 RMS(Int)=  0.00006365
 Iteration  2 RMS(Cart)=  0.00004153 RMS(Int)=  0.00004626
 Iteration  3 RMS(Cart)=  0.00000000 RMS(Int)=  0.00004626
 ClnCor:  largest displacement from symmetrization is 4.97D-12 for atom     4.
 Variable       Old X    -DE/DX   Delta X   Delta X   Delta X     New X
                                 (Linear)    (Quad)   (Total)
    R1        3.40940  -0.00169  -0.00695  -0.00776  -0.01471   3.39469
    R2        2.84355   0.00114  -0.00171   0.00435   0.00263   2.84618
    R3        2.05527   0.00025   0.00059   0.00082   0.00140   2.05667
    R4        2.05527   0.00025   0.00059   0.00082   0.00140   2.05667
    R5        3.40940  -0.00169  -0.00695  -0.00776  -0.01471   3.39469
    R6        2.05527   0.00025   0.00059   0.00082   0.00140   2.05667
    R7        2.05527   0.00025   0.00059   0.00082   0.00140   2.05667
    A1        1.89285   0.00119  -0.00079   0.00952   0.00874   1.90159
    A2        1.86177   0.00013   0.00072   0.00672   0.00745   1.86923
    A3        1.86177   0.00013   0.00072   0.00672   0.00745   1.86923
    A4        1.95835  -0.00062  -0.00013  -0.00636  -0.00655   1.95180
    A5        1.95835  -0.00062  -0.00013  -0.00636  -0.00655   1.95180
    A6        1.92522  -0.00008  -0.00032  -0.00839  -0.00883   1.91639
    A7        1.89285   0.00119  -0.00079   0.00952   0.00874   1.90159
    A8        1.95835  -0.00062  -0.00013  -0.00636  -0.00655   1.95180
    A9        1.95835  -0.00062  -0.00013  -0.00636  -0.00655   1.95180
   A10        1.86177   0.00013   0.00072   0.00672   0.00745   1.86923
   A11        1.86177   0.00013   0.00072   0.00672   0.00745   1.86923
   A12        1.92522  -0.00008  -0.00032  -0.00839  -0.00883   1.91639
    D1        3.14159  -0.00000   0.00000   0.00000   0.00000   3.14159
    D2       -1.08957   0.00054   0.00031   0.01056   0.01084  -1.07872
    D3        1.08957  -0.00054  -0.00031  -0.01056  -0.01084   1.07872
    D4        1.08957  -0.00054  -0.00031  -0.01056  -0.01084   1.07872
    D5        3.14159   0.00000   0.00000   0.00000   0.00000   3.14159
    D6       -0.96246  -0.00109  -0.00062  -0.02113  -0.02169  -0.98415
    D7       -1.08957   0.00054   0.00031   0.01056   0.01084  -1.07872
    D8        0.96246   0.00109   0.00062   0.02113   0.02169   0.98415
    D9        3.14159   0.00000   0.00000   0.00000   0.00000   3.14159
         Item               Value     Threshold  Converged?
 Maximum Force            0.001694     0.000450     NO 
 RMS     Force            0.000739     0.000300     NO 
 Maximum Displacement     0.011704     0.001800     NO 
 RMS     Displacement     0.003999     0.001200     NO 
 Predicted change in Energy=-8.520976D-05
 GradGradGradGradGradGradGradGradGradGradGradGradGradGradGradGradGradGrad

                          Input orientation:                          
 ---------------------------------------------------------------------
 Center     Atomic      Atomic             Coordinates (Angstroms)
 Number     Number       Type             X           Y           Z
 ---------------------------------------------------------------------
      1         17           0        0.011645    0.000000    0.022991
      2          6           0        0.003867   -0.000000    1.819367
      3          6           0        1.426212    0.000000    2.314719
      4         17           0        1.418435   -0.000000    4.111095
      5          1           0        1.965389   -0.890434    1.997055
      6          1           0        1.965389    0.890434    1.997055
      7          1           0       -0.535310    0.890434    2.137031
      8          1           0       -0.535310   -0.890434    2.137031
 ---------------------------------------------------------------------
                    Distance matrix (angstroms):
                    1          2          3          4          5
     1  Cl   0.000000
     2  C    1.796393   0.000000
     3  C    2.693143   1.506134   0.000000
     4  Cl   4.323384   2.693143   1.796393   0.000000
     5  H    2.916662   2.161484   1.088345   2.358219   0.000000
     6  H    2.916662   2.161484   1.088345   2.358219   1.780868
     7  H    2.358219   1.088345   2.161484   2.916662   3.073203
     8  H    2.358219   1.088345   2.161484   2.916662   2.504613
                    6          7          8
     6  H    0.000000
     7  H    2.504613   0.000000
     8  H    3.073203   1.780868   0.000000
 Stoichiometry    C2H4Cl2
 Framework group  C2H[SGH(C2Cl2),X(H4)]
 Deg. of freedom     6
 Full point group                 C2H     NOp   4
 Largest Abelian subgroup         C2H     NOp   4
 Largest concise Abelian subgroup C2H     NOp   4
                         Standard orientation:                         
 ---------------------------------------------------------------------
 Center     Atomic      Atomic             Coordinates (Angstroms)
 Number     Number       Type             X           Y           Z
 ---------------------------------------------------------------------
      1         17           0        0.712238    2.040987   -0.000000
      2          6           0        0.712238    0.244595   -0.000000
      3          6           0       -0.712238   -0.244595   -0.000000
      4         17           0       -0.712238   -2.040987   -0.000000
      5          1           0       -1.250035    0.075401    0.890434
      6          1           0       -1.250035    0.075401   -0.890434
      7          1           0        1.250035   -0.075401   -0.890434
      8          1           0        1.250035   -0.075401    0.890434
 ---------------------------------------------------------------------
 Rotational constants (GHZ):          29.3082390           1.5045759           1.4574921
 Standard basis: 6-311+G(2d,p) (5D, 7F)
 There are    54 symmetry adapted cartesian basis functions of AG  symmetry.
 There are    24 symmetry adapted cartesian basis functions of BG  symmetry.
 There are    24 symmetry adapted cartesian basis functions of AU  symmetry.
 There are    54 symmetry adapted cartesian basis functions of BU  symmetry.
 There are    50 symmetry adapted basis functions of AG  symmetry.
 There are    24 symmetry adapted basis functions of BG  symmetry.
 There are    24 symmetry adapted basis functions of AU  symmetry.
 There are    50 symmetry adapted basis functions of BU  symmetry.
   148 basis functions,   234 primitive gaussians,   156 cartesian basis functions
    25 alpha electrons       25 beta electrons
       nuclear repulsion energy       194.7023968700 Hartrees.
 NAtoms=    8 NActive=    8 NUniq=    3 SFac= 4.00D+00 NAtFMM=   60 NAOKFM=F Big=F
 Integral buffers will be    131072 words long.
 Raffenetti 2 integral format.
 Two-electron integral symmetry is turned on.
 R6APFD:  NTU= -4 IXU= 1 FactS= 1.050
 Nuclear repulsion after empirical dispersion term =      194.7001402753 Hartrees.
 One-electron integrals computed using PRISM.
 NBasis=   148 RedAO= T EigKep=  6.48D-05  NBF=    50    24    24    50
 NBsUse=   148 1.00D-06 EigRej= -1.00D+00 NBFU=    50    24    24    50
 Initial guess from the checkpoint file:  "output.chk"
 B after Tr=    -0.000000    0.000000    0.000000
         Rot=    1.000000    0.000000    0.000000   -0.000348 Ang=  -0.04 deg.
 Initial guess orbital symmetries:
       Occupied  (BU) (AG) (AG) (BU) (BU) (AG) (BU) (AG) (BU) (AG)
                 (AU) (BG) (AG) (BU) (AG) (BU) (AU) (BU) (AG) (BG)
                 (AG) (BU) (BG) (AU) (AG)
       Virtual   (BU) (AG) (AG) (BU) (AU) (BU) (AG) (BG) (AG) (BG)
                 (AG) (BU) (BU) (AU) (BU) (AU) (AG) (BG) (AG) (BU)
                 (BU) (AG) (BU) (AU) (BU) (BG) (AG) (AG) (AU) (BU)
                 (AG) (BG) (AG) (BG) (BU) (AU) (BU) (AG) (BU) (AU)
                 (BU) (AU) (BG) (AG) (AG) (BU) (BU) (AG) (AG) (BG)
                 (AU) (BG) (BU) (BU) (AG) (BG) (BU) (AU) (AG) (AG)
                 (BU) (AG) (BU) (BG) (AU) (BU) (AG) (AU) (BG) (AG)
                 (BG) (BU) (AU) (AG) (BU) (AU) (AG) (BU) (BG) (AU)
                 (AG) (AG) (BG) (BU) (BU) (AU) (BU) (AG) (BG) (BU)
                 (AU) (AG) (AG) (BU) (BG) (AG) (BG) (AU) (AG) (BU)
                 (AU) (BG) (BU) (AG) (BU) (AG) (AG) (BU) (AU) (BG)
                 (BU) (AG) (BU) (AG) (BU) (BG) (BU) (AU) (AG) (BU)
                 (AG) (AG) (BU)
 Keep R1 ints in memory in symmetry-blocked form, NReq=88388403.
 Requested convergence on RMS density matrix=1.00D-08 within 128 cycles.
 Requested convergence on MAX density matrix=1.00D-06.
 Requested convergence on             energy=1.00D-06.
 No special actions if energy rises.
 SCF Done:  E(RAPFD) =  -998.796901214     A.U. after    8 cycles
            NFock=  8  Conv=0.23D-08     -V/T= 2.0023
 R6APFD:  NTU= -4 IXU= 1 FactS= 1.050
 Calling FoFJK, ICntrl=      2127 FMM=F ISym2X=1 I1Cent= 0 IOpClX= 0 NMat=1 NMatS=1 NMatT=0.
 ***** Axes restored to original set *****
 -------------------------------------------------------------------
 Center     Atomic                   Forces (Hartrees/Bohr)
 Number     Number              X              Y              Z
 -------------------------------------------------------------------
      1       17          -0.000095729    0.000000000    0.000092857
      2        6          -0.000710032    0.000000000   -0.001466039
      3        6           0.000710032    0.000000000    0.001466039
      4       17           0.000095729   -0.000000000   -0.000092857
      5        1           0.000104852    0.000094639   -0.000249181
      6        1           0.000104852   -0.000094639   -0.000249181
      7        1          -0.000104852   -0.000094639    0.000249181
      8        1          -0.000104852    0.000094639    0.000249181
 -------------------------------------------------------------------
 Cartesian Forces:  Max     0.001466039 RMS     0.000486080

 GradGradGradGradGradGradGradGradGradGradGradGradGradGradGradGradGradGrad
 Berny optimization.
 Using GEDIIS/GDIIS optimizer.
 FormGI is forming the generalized inverse of G from B-inverse, IUseBI=4.
 Internal  Forces:  Max     0.001246453 RMS     0.000273856
 Search for a local minimum.
 Step number   3 out of a maximum of   38
 All quantities printed in internal units (Hartrees-Bohrs-Radians)
 Mixed Optimization -- En-DIIS/RFO-DIIS
 Swapping is turned off.
 Update second derivatives using D2CorX and points    1    2    3
 DE= -1.02D-04 DEPred=-8.52D-05 R= 1.19D+00
 TightC=F SS=  1.41D+00  RLast= 5.06D-02 DXNew= 5.0454D-01 1.5182D-01
 Trust test= 1.19D+00 RLast= 5.06D-02 DXMaxT set to 3.00D-01
 ITU=  1  1  0
     Eigenvalues ---    0.00636   0.04278   0.05762   0.05950   0.05950
     Eigenvalues ---    0.15794   0.16000   0.16000   0.16000   0.19205
     Eigenvalues ---    0.22302   0.24249   0.24927   0.34639   0.35296
     Eigenvalues ---    0.35296   0.35296   0.35784
 En-DIIS/RFO-DIIS/Sim-DIIS IScMMF=       -3 using points:     3    2
 RFO step:  Lambda=-1.53468960D-05.
 DidBck=F Rises=F RFO-DIIS coefs:    1.30092   -0.30092
 Iteration  1 RMS(Cart)=  0.00162942 RMS(Int)=  0.00001765
 Iteration  2 RMS(Cart)=  0.00000376 RMS(Int)=  0.00001717
 Iteration  3 RMS(Cart)=  0.00000000 RMS(Int)=  0.00001717
 ClnCor:  largest displacement from symmetrization is 9.65D-09 for atom     7.
 Variable       Old X    -DE/DX   Delta X   Delta X   Delta X     New X
                                 (Linear)    (Quad)   (Total)
    R1        3.39469  -0.00009  -0.00443   0.00118  -0.00324   3.39145
    R2        2.84618   0.00125   0.00079   0.00361   0.00441   2.85059
    R3        2.05667   0.00005   0.00042  -0.00002   0.00041   2.05708
    R4        2.05667   0.00005   0.00042  -0.00002   0.00041   2.05708
    R5        3.39469  -0.00009  -0.00443   0.00118  -0.00324   3.39145
    R6        2.05667   0.00005   0.00042  -0.00002   0.00041   2.05708
    R7        2.05667   0.00005   0.00042  -0.00002   0.00041   2.05708
    A1        1.90159   0.00032   0.00263   0.00005   0.00268   1.90428
    A2        1.86923  -0.00001   0.00224  -0.00015   0.00210   1.87132
    A3        1.86923  -0.00001   0.00224  -0.00015   0.00210   1.87132
    A4        1.95180  -0.00008  -0.00197   0.00060  -0.00140   1.95040
    A5        1.95180  -0.00008  -0.00197   0.00060  -0.00140   1.95040
    A6        1.91639  -0.00013  -0.00266  -0.00100  -0.00370   1.91269
    A7        1.90159   0.00032   0.00263   0.00005   0.00268   1.90428
    A8        1.95180  -0.00008  -0.00197   0.00060  -0.00140   1.95040
    A9        1.95180  -0.00008  -0.00197   0.00060  -0.00140   1.95040
   A10        1.86923  -0.00001   0.00224  -0.00015   0.00210   1.87132
   A11        1.86923  -0.00001   0.00224  -0.00015   0.00210   1.87132
   A12        1.91639  -0.00013  -0.00266  -0.00100  -0.00370   1.91269
    D1        3.14159   0.00000   0.00000   0.00000   0.00000   3.14159
    D2       -1.07872   0.00015   0.00326   0.00021   0.00346  -1.07526
    D3        1.07872  -0.00015  -0.00326  -0.00021  -0.00346   1.07526
    D4        1.07872  -0.00015  -0.00326  -0.00021  -0.00346   1.07526
    D5        3.14159  -0.00000   0.00000  -0.00000   0.00000   3.14159
    D6       -0.98415  -0.00029  -0.00653  -0.00042  -0.00692  -0.99107
    D7       -1.07872   0.00015   0.00326   0.00021   0.00346  -1.07526
    D8        0.98415   0.00029   0.00653   0.00042   0.00692   0.99107
    D9        3.14159   0.00000   0.00000   0.00000   0.00000  -3.14159
         Item               Value     Threshold  Converged?
 Maximum Force            0.001246     0.000450     NO 
 RMS     Force            0.000274     0.000300     YES
 Maximum Displacement     0.004121     0.001800     NO 
 RMS     Displacement     0.001630     0.001200     NO 
 Predicted change in Energy=-7.672264D-06
 GradGradGradGradGradGradGradGradGradGradGradGradGradGradGradGradGradGrad

                          Input orientation:                          
 ---------------------------------------------------------------------
 Center     Atomic      Atomic             Coordinates (Angstroms)
 Number     Number       Type             X           Y           Z
 ---------------------------------------------------------------------
      1         17           0        0.010882    0.000000    0.022524
      2          6           0        0.003394   -0.000000    1.817186
      3          6           0        1.426685    0.000000    2.316900
      4         17           0        1.419197   -0.000000    4.111562
      5          1           0        1.966542   -0.889450    1.996909
      6          1           0        1.966542    0.889450    1.996909
      7          1           0       -0.536463    0.889450    2.137177
      8          1           0       -0.536463   -0.889450    2.137177
 ---------------------------------------------------------------------
                    Distance matrix (angstroms):
                    1          2          3          4          5
     1  Cl   0.000000
     2  C    1.794677   0.000000
     3  C    2.696045   1.508466   0.000000
     4  Cl   4.324763   2.696045   1.794677   0.000000
     5  H    2.917863   2.162723   1.088559   2.358488   0.000000
     6  H    2.917863   2.162723   1.088559   2.358488   1.778900
     7  H    2.358488   1.088559   2.162723   2.917863   3.073955
     8  H    2.358488   1.088559   2.162723   2.917863   2.506933
                    6          7          8
     6  H    0.000000
     7  H    2.506933   0.000000
     8  H    3.073955   1.778900   0.000000
 Stoichiometry    C2H4Cl2
 Framework group  C2H[SGH(C2Cl2),X(H4)]
 Deg. of freedom     6
 Full point group                 C2H     NOp   4
 Largest Abelian subgroup         C2H     NOp   4
 Largest concise Abelian subgroup C2H     NOp   4
                         Standard orientation:                         
 ---------------------------------------------------------------------
 Center     Atomic      Atomic             Coordinates (Angstroms)
 Number     Number       Type             X           Y           Z
 ---------------------------------------------------------------------
      1         17           0        0.712682    2.041563    0.000000
      2          6           0        0.712682    0.246886    0.000000
      3          6           0       -0.712682   -0.246886    0.000000
      4         17           0       -0.712682   -2.041563    0.000000
      5          1           0       -1.251199    0.075355    0.889450
      6          1           0       -1.251199    0.075355   -0.889450
      7          1           0        1.251199   -0.075355   -0.889450
      8          1           0        1.251199   -0.075355    0.889450
 ---------------------------------------------------------------------
 Rotational constants (GHZ):          29.3242055           1.5034225           1.4563899
 Standard basis: 6-311+G(2d,p) (5D, 7F)
 There are    54 symmetry adapted cartesian basis functions of AG  symmetry.
 There are    24 symmetry adapted cartesian basis functions of BG  symmetry.
 There are    24 symmetry adapted cartesian basis functions of AU  symmetry.
 There are    54 symmetry adapted cartesian basis functions of BU  symmetry.
 There are    50 symmetry adapted basis functions of AG  symmetry.
 There are    24 symmetry adapted basis functions of BG  symmetry.
 There are    24 symmetry adapted basis functions of AU  symmetry.
 There are    50 symmetry adapted basis functions of BU  symmetry.
   148 basis functions,   234 primitive gaussians,   156 cartesian basis functions
    25 alpha electrons       25 beta electrons
       nuclear repulsion energy       194.6735539051 Hartrees.
 NAtoms=    8 NActive=    8 NUniq=    3 SFac= 4.00D+00 NAtFMM=   60 NAOKFM=F Big=F
 Integral buffers will be    131072 words long.
 Raffenetti 2 integral format.
 Two-electron integral symmetry is turned on.
 R6APFD:  NTU= -4 IXU= 1 FactS= 1.050
 Nuclear repulsion after empirical dispersion term =      194.6712941624 Hartrees.
 One-electron integrals computed using PRISM.
 NBasis=   148 RedAO= T EigKep=  6.52D-05  NBF=    50    24    24    50
 NBsUse=   148 1.00D-06 EigRej= -1.00D+00 NBFU=    50    24    24    50
 Initial guess from the checkpoint file:  "output.chk"
 B after Tr=    -0.000000   -0.000000   -0.000000
         Rot=    1.000000   -0.000000   -0.000000   -0.000006 Ang=  -0.00 deg.
 Initial guess orbital symmetries:
       Occupied  (BU) (AG) (AG) (BU) (BU) (AG) (BU) (AG) (BU) (AG)
                 (AU) (BG) (AG) (BU) (AG) (BU) (AU) (BU) (AG) (BG)
                 (AG) (BU) (BG) (AU) (AG)
       Virtual   (BU) (AG) (BU) (AG) (AU) (BU) (AG) (BG) (AG) (BG)
                 (AG) (BU) (BU) (AU) (BU) (AU) (AG) (BG) (AG) (BU)
                 (BU) (AG) (BU) (AU) (BU) (BG) (AG) (AG) (AU) (BU)
                 (AG) (BG) (AG) (BG) (BU) (AU) (BU) (AG) (BU) (AU)
                 (BU) (AU) (BG) (AG) (AG) (BU) (BU) (AG) (AG) (BG)
                 (AU) (BG) (BU) (BU) (AG) (BG) (BU) (AU) (AG) (AG)
                 (BU) (AG) (BU) (BG) (AU) (BU) (AG) (AU) (BG) (AG)
                 (BG) (BU) (AU) (AG) (BU) (AU) (BU) (AG) (BG) (AU)
                 (AG) (AG) (BG) (BU) (BU) (AU) (BU) (AG) (BG) (BU)
                 (AU) (AG) (AG) (BU) (BG) (AG) (BG) (AU) (AG) (BU)
                 (AU) (BG) (BU) (AG) (BU) (AG) (AG) (BU) (AU) (BG)
                 (BU) (AG) (BU) (AG) (BU) (BG) (BU) (AU) (AG) (BU)
                 (AG) (AG) (BU)
 Keep R1 ints in memory in symmetry-blocked form, NReq=88388403.
 Requested convergence on RMS density matrix=1.00D-08 within 128 cycles.
 Requested convergence on MAX density matrix=1.00D-06.
 Requested convergence on             energy=1.00D-06.
 No special actions if energy rises.
 SCF Done:  E(RAPFD) =  -998.796908931     A.U. after    7 cycles
            NFock=  7  Conv=0.55D-08     -V/T= 2.0023
 R6APFD:  NTU= -4 IXU= 1 FactS= 1.050
 Calling FoFJK, ICntrl=      2127 FMM=F ISym2X=1 I1Cent= 0 IOpClX= 0 NMat=1 NMatS=1 NMatT=0.
 ***** Axes restored to original set *****
 -------------------------------------------------------------------
 Center     Atomic                   Forces (Hartrees/Bohr)
 Number     Number              X              Y              Z
 -------------------------------------------------------------------
      1       17           0.000013311    0.000000000   -0.000111162
      2        6          -0.000147621    0.000000000    0.000011877
      3        6           0.000147621    0.000000000   -0.000011877
      4       17          -0.000013311   -0.000000000    0.000111162
      5        1          -0.000042077    0.000012732   -0.000022708
      6        1          -0.000042077   -0.000012732   -0.000022708
      7        1           0.000042077   -0.000012732    0.000022708
      8        1           0.000042077    0.000012732    0.000022708
 -------------------------------------------------------------------
 Cartesian Forces:  Max     0.000147621 RMS     0.000057274

 GradGradGradGradGradGradGradGradGradGradGradGradGradGradGradGradGradGrad
 Berny optimization.
 Using GEDIIS/GDIIS optimizer.
 FormGI is forming the generalized inverse of G from B-inverse, IUseBI=4.
 Internal  Forces:  Max     0.000111437 RMS     0.000041595
 Search for a local minimum.
 Step number   4 out of a maximum of   38
 All quantities printed in internal units (Hartrees-Bohrs-Radians)
 Mixed Optimization -- En-DIIS/RFO-DIIS
 Swapping is turned off.
 Update second derivatives using D2CorX and points    1    2    3    4
 DE= -7.72D-06 DEPred=-7.67D-06 R= 1.01D+00
 TightC=F SS=  1.41D+00  RLast= 1.59D-02 DXNew= 5.0454D-01 4.7614D-02
 Trust test= 1.01D+00 RLast= 1.59D-02 DXMaxT set to 3.00D-01
 ITU=  1  1  1  0
     Eigenvalues ---    0.00636   0.04194   0.05786   0.05930   0.05930
     Eigenvalues ---    0.15498   0.16000   0.16000   0.16000   0.20271
     Eigenvalues ---    0.22300   0.24249   0.24899   0.32363   0.35246
     Eigenvalues ---    0.35296   0.35296   0.35296
 En-DIIS/RFO-DIIS/Sim-DIIS IScMMF=       -3 using points:     4    3    2
 RFO step:  Lambda=-2.23497935D-07.
 DidBck=F Rises=F RFO-DIIS coefs:    1.00913   -0.00725   -0.00188
 Iteration  1 RMS(Cart)=  0.00023071 RMS(Int)=  0.00000019
 Iteration  2 RMS(Cart)=  0.00000004 RMS(Int)=  0.00000019
 ClnCor:  largest displacement from symmetrization is 1.33D-08 for atom     4.
 Variable       Old X    -DE/DX   Delta X   Delta X   Delta X     New X
                                 (Linear)    (Quad)   (Total)
    R1        3.39145   0.00011  -0.00006   0.00050   0.00044   3.39189
    R2        2.85059   0.00006   0.00005   0.00014   0.00019   2.85077
    R3        2.05708  -0.00002   0.00001  -0.00007  -0.00007   2.05701
    R4        2.05708  -0.00002   0.00001  -0.00007  -0.00007   2.05701
    R5        3.39145   0.00011  -0.00006   0.00050   0.00044   3.39189
    R6        2.05708  -0.00002   0.00001  -0.00007  -0.00007   2.05701
    R7        2.05708  -0.00002   0.00001  -0.00007  -0.00007   2.05701
    A1        1.90428  -0.00001   0.00004  -0.00010  -0.00006   1.90421
    A2        1.87132   0.00003   0.00003   0.00021   0.00024   1.87157
    A3        1.87132   0.00003   0.00003   0.00021   0.00024   1.87157
    A4        1.95040  -0.00005  -0.00003  -0.00025  -0.00027   1.95013
    A5        1.95040  -0.00005  -0.00003  -0.00025  -0.00027   1.95013
    A6        1.91269   0.00004  -0.00005   0.00022   0.00017   1.91285
    A7        1.90428  -0.00001   0.00004  -0.00010  -0.00006   1.90421
    A8        1.95040  -0.00005  -0.00003  -0.00025  -0.00027   1.95013
    A9        1.95040  -0.00005  -0.00003  -0.00025  -0.00027   1.95013
   A10        1.87132   0.00003   0.00003   0.00021   0.00024   1.87157
   A11        1.87132   0.00003   0.00003   0.00021   0.00024   1.87157
   A12        1.91269   0.00004  -0.00005   0.00022   0.00017   1.91285
    D1        3.14159   0.00000  -0.00000   0.00000   0.00000   3.14159
    D2       -1.07526   0.00001   0.00005   0.00004   0.00009  -1.07517
    D3        1.07526  -0.00001  -0.00005  -0.00004  -0.00009   1.07517
    D4        1.07526  -0.00001  -0.00005  -0.00004  -0.00009   1.07517
    D5        3.14159   0.00000  -0.00000   0.00000   0.00000   3.14159
    D6       -0.99107  -0.00002  -0.00010  -0.00008  -0.00019  -0.99125
    D7       -1.07526   0.00001   0.00005   0.00004   0.00009  -1.07517
    D8        0.99107   0.00002   0.00010   0.00008   0.00019   0.99125
    D9       -3.14159  -0.00000   0.00000  -0.00000  -0.00000   3.14159
         Item               Value     Threshold  Converged?
 Maximum Force            0.000111     0.000450     YES
 RMS     Force            0.000042     0.000300     YES
 Maximum Displacement     0.000500     0.001800     YES
 RMS     Displacement     0.000231     0.001200     YES
 Predicted change in Energy=-1.117449D-07
 Optimization completed.
    -- Stationary point found.
                           ----------------------------
                           !   Optimized Parameters   !
                           ! (Angstroms and Degrees)  !
 --------------------------                            --------------------------
 ! Name  Definition              Value          Derivative Info.                !
 --------------------------------------------------------------------------------
 ! R1    R(1,2)                  1.7947         -DE/DX =    0.0001              !
 ! R2    R(2,3)                  1.5085         -DE/DX =    0.0001              !
 ! R3    R(2,7)                  1.0886         -DE/DX =    0.0                 !
 ! R4    R(2,8)                  1.0886         -DE/DX =    0.0                 !
 ! R5    R(3,4)                  1.7947         -DE/DX =    0.0001              !
 ! R6    R(3,5)                  1.0886         -DE/DX =    0.0                 !
 ! R7    R(3,6)                  1.0886         -DE/DX =    0.0                 !
 ! A1    A(1,2,3)              109.107          -DE/DX =    0.0                 !
 ! A2    A(1,2,7)              107.219          -DE/DX =    0.0                 !
 ! A3    A(1,2,8)              107.219          -DE/DX =    0.0                 !
 ! A4    A(3,2,7)              111.7498         -DE/DX =    0.0                 !
 ! A5    A(3,2,8)              111.7498         -DE/DX =    0.0                 !
 ! A6    A(7,2,8)              109.5889         -DE/DX =    0.0                 !
 ! A7    A(2,3,4)              109.107          -DE/DX =    0.0                 !
 ! A8    A(2,3,5)              111.7498         -DE/DX =    0.0                 !
 ! A9    A(2,3,6)              111.7498         -DE/DX =    0.0                 !
 ! A10   A(4,3,5)              107.219          -DE/DX =    0.0                 !
 ! A11   A(4,3,6)              107.219          -DE/DX =    0.0                 !
 ! A12   A(5,3,6)              109.5889         -DE/DX =    0.0                 !
 ! D1    D(1,2,3,4)            180.0            -DE/DX =    0.0                 !
 ! D2    D(1,2,3,5)            -61.608          -DE/DX =    0.0                 !
 ! D3    D(1,2,3,6)             61.608          -DE/DX =    0.0                 !
 ! D4    D(7,2,3,4)             61.608          -DE/DX =    0.0                 !
 ! D5    D(7,2,3,5)            180.0            -DE/DX =    0.0                 !
 ! D6    D(7,2,3,6)            -56.784          -DE/DX =    0.0                 !
 ! D7    D(8,2,3,4)            -61.608          -DE/DX =    0.0                 !
 ! D8    D(8,2,3,5)             56.784          -DE/DX =    0.0                 !
 ! D9    D(8,2,3,6)            180.0            -DE/DX =    0.0                 !
 --------------------------------------------------------------------------------
 GradGradGradGradGradGradGradGradGradGradGradGradGradGradGradGradGradGrad

                          Input orientation:                          
 ---------------------------------------------------------------------
 Center     Atomic      Atomic             Coordinates (Angstroms)
 Number     Number       Type             X           Y           Z
 ---------------------------------------------------------------------
      1         17           0        0.010882    0.000000    0.022524
      2          6           0        0.003394    0.000000    1.817186
      3          6           0        1.426685    0.000000    2.316900
      4         17           0        1.419197    0.000000    4.111562
      5          1           0        1.966542   -0.889450    1.996909
      6          1           0        1.966542    0.889450    1.996909
      7          1           0       -0.536463    0.889450    2.137177
      8          1           0       -0.536463   -0.889450    2.137177
 ---------------------------------------------------------------------
                    Distance matrix (angstroms):
                    1          2          3          4          5
     1  Cl   0.000000
     2  C    1.794677   0.000000
     3  C    2.696045   1.508466   0.000000
     4  Cl   4.324763   2.696045   1.794677   0.000000
     5  H    2.917863   2.162723   1.088559   2.358488   0.000000
     6  H    2.917863   2.162723   1.088559   2.358488   1.778900
     7  H    2.358488   1.088559   2.162723   2.917863   3.073955
     8  H    2.358488   1.088559   2.162723   2.917863   2.506933
                    6          7          8
     6  H    0.000000
     7  H    2.506933   0.000000
     8  H    3.073955   1.778900   0.000000
 Stoichiometry    C2H4Cl2
 Framework group  C2H[SGH(C2Cl2),X(H4)]
 Deg. of freedom     6
 Full point group                 C2H     NOp   4
 Largest Abelian subgroup         C2H     NOp   4
 Largest concise Abelian subgroup C2H     NOp   4
                         Standard orientation:                         
 ---------------------------------------------------------------------
 Center     Atomic      Atomic             Coordinates (Angstroms)
 Number     Number       Type             X           Y           Z
 ---------------------------------------------------------------------
      1         17           0        0.712682    2.041563    0.000000
      2          6           0        0.712682    0.246886    0.000000
      3          6           0       -0.712682   -0.246886    0.000000
      4         17           0       -0.712682   -2.041563    0.000000
      5          1           0       -1.251199    0.075355    0.889450
      6          1           0       -1.251199    0.075355   -0.889450
      7          1           0        1.251199   -0.075355   -0.889450
      8          1           0        1.251199   -0.075355    0.889450
 ---------------------------------------------------------------------
 Rotational constants (GHZ):          29.3242055           1.5034225           1.4563899

 **********************************************************************

            Population analysis using the SCF Density.

 **********************************************************************

 Orbital symmetries:
       Occupied  (BU) (AG) (AG) (BU) (BU) (AG) (BU) (AG) (BU) (AG)
                 (AU) (BG) (AG) (BU) (AG) (BU) (AU) (BU) (AG) (BG)
                 (AG) (BU) (BG) (AU) (AG)
       Virtual   (BU) (AG) (BU) (AG) (AU) (BU) (AG) (BG) (AG) (BG)
                 (AG) (BU) (BU) (AU) (BU) (AU) (AG) (BG) (AG) (BU)
                 (BU) (AG) (BU) (AU) (BU) (BG) (AG) (AG) (AU) (BU)
                 (AG) (BG) (AG) (BG) (BU) (AU) (BU) (AG) (BU) (AU)
                 (BU) (AU) (BG) (AG) (AG) (BU) (BU) (AG) (AG) (BG)
                 (AU) (BG) (BU) (BU) (AG) (BG) (BU) (AU) (AG) (AG)
                 (BU) (AG) (BU) (BG) (AU) (BU) (AG) (AU) (BG) (AG)
                 (BG) (BU) (AU) (AG) (BU) (AU) (BU) (AG) (BG) (AU)
                 (AG) (AG) (BG) (BU) (BU) (AU) (BU) (AG) (BG) (BU)
                 (AU) (AG) (AG) (BU) (BG) (AG) (BG) (AU) (AG) (BU)
                 (AU) (BG) (BU) (AG) (BU) (AG) (AG) (BU) (AU) (BG)
                 (BU) (AG) (BU) (AG) (BU) (BG) (BU) (AU) (AG) (BU)
                 (AG) (AG) (BU)
 The electronic state is 1-AG.
 Alpha  occ. eigenvalues -- -101.65203-101.65202 -10.27648 -10.27621  -9.51309
 Alpha  occ. eigenvalues --   -9.51308  -7.25990  -7.25990  -7.25027  -7.25027
 Alpha  occ. eigenvalues --   -7.25002  -7.25002  -0.91107  -0.86818  -0.74515
 Alpha  occ. eigenvalues --   -0.64892  -0.52287  -0.47656  -0.46452  -0.42905
 Alpha  occ. eigenvalues --   -0.40944  -0.33375  -0.32245  -0.31938  -0.31765
 Alpha virt. eigenvalues --   -0.00999   0.00457   0.03262   0.03285   0.04242
 Alpha virt. eigenvalues --    0.05254   0.06871   0.07808   0.09095   0.09442
 Alpha virt. eigenvalues --    0.09962   0.10156   0.12173   0.12502   0.12927
 Alpha virt. eigenvalues --    0.15850   0.16625   0.18702   0.19679   0.21140
 Alpha virt. eigenvalues --    0.22115   0.23094   0.24393   0.36396   0.37047
 Alpha virt. eigenvalues --    0.37666   0.37723   0.40098   0.40824   0.43145
 Alpha virt. eigenvalues --    0.44713   0.45533   0.46267   0.46483   0.46853
 Alpha virt. eigenvalues --    0.47429   0.49698   0.49782   0.51802   0.54127
 Alpha virt. eigenvalues --    0.58163   0.59484   0.61668   0.63463   0.67070
 Alpha virt. eigenvalues --    0.67960   0.74116   0.75166   0.78916   0.79831
 Alpha virt. eigenvalues --    0.85836   0.89217   0.90925   0.98018   0.99079
 Alpha virt. eigenvalues --    1.04643   1.14912   1.16472   1.18463   1.23486
 Alpha virt. eigenvalues --    1.24035   1.29502   1.37688   1.60001   1.63037
 Alpha virt. eigenvalues --    1.78389   1.82686   1.90753   2.05095   2.10076
 Alpha virt. eigenvalues --    2.15854   2.19152   2.23492   2.27844   2.30538
 Alpha virt. eigenvalues --    2.35367   2.35747   2.35863   2.36678   2.37779
 Alpha virt. eigenvalues --    2.40056   2.42237   2.43610   2.44479   2.47026
 Alpha virt. eigenvalues --    2.47282   2.51524   2.57678   2.60901   2.67010
 Alpha virt. eigenvalues --    2.70506   2.70858   2.77000   2.79122   2.80876
 Alpha virt. eigenvalues --    3.09567   3.20547   3.23464   3.26049   3.26630
 Alpha virt. eigenvalues --    3.42696   3.42933   3.44148   3.47862   3.49613
 Alpha virt. eigenvalues --    3.55191   3.67623   3.82332   4.18251   4.18873
 Alpha virt. eigenvalues --    4.41032   9.76105   9.84076  23.87247  23.89481
 Alpha virt. eigenvalues --   25.89887  25.96038  25.97802  26.00653  26.98435
 Alpha virt. eigenvalues --   27.01495 215.88332 215.96926
          Condensed to atoms (all electrons):
               1          2          3          4          5          6
     1  Cl  16.771676   0.266740  -0.029144   0.012843   0.004776   0.004776
     2  C    0.266740   5.366631   0.091892  -0.029144  -0.058840  -0.058840
     3  C   -0.029144   0.091892   5.366631   0.266740   0.427215   0.427215
     4  Cl   0.012843  -0.029144   0.266740  16.771676  -0.045882  -0.045882
     5  H    0.004776  -0.058840   0.427215  -0.045882   0.524789  -0.037557
     6  H    0.004776  -0.058840   0.427215  -0.045882  -0.037557   0.524789
     7  H   -0.045882   0.427215  -0.058840   0.004776   0.006075  -0.006963
     8  H   -0.045882   0.427215  -0.058840   0.004776  -0.006963   0.006075
               7          8
     1  Cl  -0.045882  -0.045882
     2  C    0.427215   0.427215
     3  C   -0.058840  -0.058840
     4  Cl   0.004776   0.004776
     5  H    0.006075  -0.006963
     6  H   -0.006963   0.006075
     7  H    0.524789  -0.037557
     8  H   -0.037557   0.524789
 Mulliken charges:
               1
     1  Cl   0.060095
     2  C   -0.432867
     3  C   -0.432867
     4  Cl   0.060095
     5  H    0.186386
     6  H    0.186386
     7  H    0.186386
     8  H    0.186386
 Sum of Mulliken charges =  -0.00000
 Mulliken charges with hydrogens summed into heavy atoms:
               1
     1  Cl   0.060095
     2  C   -0.060095
     3  C   -0.060095
     4  Cl   0.060095
 Electronic spatial extent (au):  <R**2>=            715.1737
 Charge=             -0.0000 electrons
 Dipole moment (field-independent basis, Debye):
    X=              0.0000    Y=              0.0000    Z=             -0.0000  Tot=              0.0000
 Quadrupole moment (field-independent basis, Debye-Ang):
   XX=            -37.8330   YY=            -44.4931   ZZ=            -37.8165
   XY=             -2.4834   XZ=              0.0000   YZ=             -0.0000
 Traceless Quadrupole moment (field-independent basis, Debye-Ang):
   XX=              2.2145   YY=             -4.4456   ZZ=              2.2310
   XY=             -2.4834   XZ=              0.0000   YZ=             -0.0000
 Octapole moment (field-independent basis, Debye-Ang**2):
  XXX=              0.0000  YYY=              0.0000  ZZZ=             -0.0000  XYY=              0.0000
  XXY=              0.0000  XXZ=             -0.0000  XZZ=              0.0000  YZZ=              0.0000
  YYZ=              0.0000  XYZ=              0.0000
 Hexadecapole moment (field-independent basis, Debye-Ang**3):
 XXXX=           -180.2499 YYYY=           -659.8334 ZZZZ=            -55.5063 XXXY=           -121.9926
 XXXZ=             -0.0000 YYYX=           -116.6057 YYYZ=             -0.0000 ZZZX=             -0.0000
 ZZZY=             -0.0000 XXYY=           -152.0051 XXZZ=            -36.1473 YYZZ=           -129.6577
 XXYZ=             -0.0000 YYXZ=             -0.0000 ZZXY=            -40.6786
 N-N= 1.946712941624D+02 E-N=-2.759384518159D+03  KE= 9.964735612068D+02
 Symmetry AG   KE= 4.520863076114D+02
 Symmetry BG   KE= 4.789118628556D+01
 Symmetry AU   KE= 4.778949747675D+01
 Symmetry BU   KE= 4.487065698331D+02
 B after Tr=    -0.006014    0.000000    0.002086
         Rot=    1.000000   -0.000000   -0.000770   -0.000000 Ang=  -0.09 deg.
 Final structure in terms of initial Z-matrix:
 Cl
 C,1,B1
 C,2,B2,1,A1
 Cl,3,B3,2,A2,1,D1,0
 H,3,B4,4,A3,2,D2,0
 H,3,B5,4,A4,2,D3,0
 H,2,B6,1,A5,3,D4,0
 H,2,B7,1,A6,3,D5,0
      Variables:
 B1=1.79467735
 B2=1.50846606
 B3=1.79467735
 B4=1.0885595
 B5=1.0885595
 B6=1.0885595
 B7=1.0885595
 A1=109.10700397
 A2=109.10700397
 A3=107.21900684
 A4=107.21900684
 A5=107.21900684
 A6=107.21900684
 D1=180.
 D2=-121.19282468
 D3=121.19282468
 D4=121.19282468
 D5=-121.19282468
 Unable to Open any file for archive entry.
 1\1\GINC-C0006\FOpt\RAPFD\6-311+G(2d,p)\C2H4Cl2\WEBMO\08-Sep-2026\0\\#
 N APFD/6-311+G(2d,p) Opt Freq=(Raman,hpmodes) Geom=Connectivity\\C2H4C
 l2\\0,1\Cl,0.0108821877,0.,0.0225244657\C,0.0033943596,0.,1.817186195\
 C,1.4266848356,0.,2.3169001956\Cl,1.4191970075,0.,4.1115619249\H,1.966
 542431,-0.8894499681,1.9969090771\H,1.966542431,0.8894499681,1.9969090
 771\H,-0.5364632357,0.8894499681,2.1371773135\H,-0.5364632357,-0.88944
 99681,2.1371773135\\Version=ES64L-G16RevC.02\State=1-AG\HF=-998.796908
 9\RMSD=5.502e-09\RMSF=5.727e-05\Dipole=0.,0.,0.\Quadrupole=1.6617671,1
 .6587298,-3.3204969,0.,-1.8255982,0.\PG=C02H [SGH(C2Cl2),X(H4)]\\@
 The archive entry for this job was punched.


 The lyf so short, the craft so long to lerne.
                             -- Chaucer
 Job cpu time:       0 days  0 hours  2 minutes 19.8 seconds.
 Elapsed time:       0 days  0 hours  0 minutes  9.0 seconds.
 File lengths (MBytes):  RWF=     16 Int=      0 D2E=      0 Chk=      3 Scr=      1
 Normal termination of Gaussian 16 at Tue Sep  8 12:02:48 2026.
 Link1:  Proceeding to internal job step number  2.
 ----------------------------------------------------------------------
 #N Geom=AllCheck Guess=TCheck SCRF=Check GenChk RAPFD/6-311+G(2d,p) Fr
 eq
 ----------------------------------------------------------------------
 1/10=4,29=7,30=1,38=1,40=1/1,3;
 2/12=2,40=1/2;
 3/5=4,6=6,7=112,11=2,14=-4,25=1,30=1,70=2,71=2,74=-44,116=1,140=1/1,2,3;
 4/5=101/1;
 5/5=2,38=6,98=1/2;
 8/6=4,10=90,11=11/1;
 10/13=10,15=4/2;
 11/6=3,8=1,9=11,15=111,16=1/1,2,10;
 10/6=1/2;
 6/7=2,8=2,9=2,10=2,28=1/1;
 7/8=11,10=1,25=1/1,2,3,16;
 1/10=4,30=1/3;
 99//99;
 Structure from the checkpoint file:  "output.chk"
 -------
 C2H4Cl2
 -------
 Charge =  0 Multiplicity = 1
 Redundant internal coordinates found in file.  (old form).
 Cl,0,0.0108821877,0.,0.0225244657
 C,0,0.0033943596,0.,1.817186195
 C,0,1.4266848356,0.,2.3169001956
 Cl,0,1.4191970075,0.,4.1115619249
 H,0,1.966542431,-0.8894499681,1.9969090771
 H,0,1.966542431,0.8894499681,1.9969090771
 H,0,-0.5364632357,0.8894499681,2.1371773135
 H,0,-0.5364632357,-0.8894499681,2.1371773135
 Recover connectivity data from disk.

 GradGradGradGradGradGradGradGradGradGradGradGradGradGradGradGradGradGrad
 Berny optimization.
 Initialization pass.
                           ----------------------------
                           !    Initial Parameters    !
                           ! (Angstroms and Degrees)  !
 --------------------------                            --------------------------
 ! Name  Definition              Value          Derivative Info.                !
 --------------------------------------------------------------------------------
 ! R1    R(1,2)                  1.7947         calculate D2E/DX2 analytically  !
 ! R2    R(2,3)                  1.5085         calculate D2E/DX2 analytically  !
 ! R3    R(2,7)                  1.0886         calculate D2E/DX2 analytically  !
 ! R4    R(2,8)                  1.0886         calculate D2E/DX2 analytically  !
 ! R5    R(3,4)                  1.7947         calculate D2E/DX2 analytically  !
 ! R6    R(3,5)                  1.0886         calculate D2E/DX2 analytically  !
 ! R7    R(3,6)                  1.0886         calculate D2E/DX2 analytically  !
 ! A1    A(1,2,3)              109.107          calculate D2E/DX2 analytically  !
 ! A2    A(1,2,7)              107.219          calculate D2E/DX2 analytically  !
 ! A3    A(1,2,8)              107.219          calculate D2E/DX2 analytically  !
 ! A4    A(3,2,7)              111.7498         calculate D2E/DX2 analytically  !
 ! A5    A(3,2,8)              111.7498         calculate D2E/DX2 analytically  !
 ! A6    A(7,2,8)              109.5889         calculate D2E/DX2 analytically  !
 ! A7    A(2,3,4)              109.107          calculate D2E/DX2 analytically  !
 ! A8    A(2,3,5)              111.7498         calculate D2E/DX2 analytically  !
 ! A9    A(2,3,6)              111.7498         calculate D2E/DX2 analytically  !
 ! A10   A(4,3,5)              107.219          calculate D2E/DX2 analytically  !
 ! A11   A(4,3,6)              107.219          calculate D2E/DX2 analytically  !
 ! A12   A(5,3,6)              109.5889         calculate D2E/DX2 analytically  !
 ! D1    D(1,2,3,4)            180.0            calculate D2E/DX2 analytically  !
 ! D2    D(1,2,3,5)            -61.608          calculate D2E/DX2 analytically  !
 ! D3    D(1,2,3,6)             61.608          calculate D2E/DX2 analytically  !
 ! D4    D(7,2,3,4)             61.608          calculate D2E/DX2 analytically  !
 ! D5    D(7,2,3,5)            180.0            calculate D2E/DX2 analytically  !
 ! D6    D(7,2,3,6)            -56.784          calculate D2E/DX2 analytically  !
 ! D7    D(8,2,3,4)            -61.608          calculate D2E/DX2 analytically  !
 ! D8    D(8,2,3,5)             56.784          calculate D2E/DX2 analytically  !
 ! D9    D(8,2,3,6)            180.0            calculate D2E/DX2 analytically  !
 --------------------------------------------------------------------------------
 Trust Radius=3.00D-01 FncErr=1.00D-07 GrdErr=1.00D-07 EigMax=2.50D+02 EigMin=1.00D-04
 Number of steps in this run=      2 maximum allowed number of steps=      2.
 GradGradGradGradGradGradGradGradGradGradGradGradGradGradGradGradGradGrad

                          Input orientation:                          
 ---------------------------------------------------------------------
 Center     Atomic      Atomic             Coordinates (Angstroms)
 Number     Number       Type             X           Y           Z
 ---------------------------------------------------------------------
      1         17           0        0.010882    0.000000    0.022524
      2          6           0        0.003394    0.000000    1.817186
      3          6           0        1.426685    0.000000    2.316900
      4         17           0        1.419197    0.000000    4.111562
      5          1           0        1.966542   -0.889450    1.996909
      6          1           0        1.966542    0.889450    1.996909
      7          1           0       -0.536463    0.889450    2.137177
      8          1           0       -0.536463   -0.889450    2.137177
 ---------------------------------------------------------------------
                    Distance matrix (angstroms):
                    1          2          3          4          5
     1  Cl   0.000000
     2  C    1.794677   0.000000
     3  C    2.696045   1.508466   0.000000
     4  Cl   4.324763   2.696045   1.794677   0.000000
     5  H    2.917863   2.162723   1.088559   2.358488   0.000000
     6  H    2.917863   2.162723   1.088559   2.358488   1.778900
     7  H    2.358488   1.088559   2.162723   2.917863   3.073955
     8  H    2.358488   1.088559   2.162723   2.917863   2.506933
                    6          7          8
     6  H    0.000000
     7  H    2.506933   0.000000
     8  H    3.073955   1.778900   0.000000
 Stoichiometry    C2H4Cl2
 Framework group  C2H[SGH(C2Cl2),X(H4)]
 Deg. of freedom     6
 Full point group                 C2H     NOp   4
 Largest Abelian subgroup         C2H     NOp   4
 Largest concise Abelian subgroup C2H     NOp   4
                         Standard orientation:                         
 ---------------------------------------------------------------------
 Center     Atomic      Atomic             Coordinates (Angstroms)
 Number     Number       Type             X           Y           Z
 ---------------------------------------------------------------------
      1         17           0        0.712682    2.041563    0.000000
      2          6           0        0.712682    0.246886    0.000000
      3          6           0       -0.712682   -0.246886    0.000000
      4         17           0       -0.712682   -2.041563   -0.000000
      5          1           0       -1.251199    0.075355    0.889450
      6          1           0       -1.251199    0.075355   -0.889450
      7          1           0        1.251199   -0.075355   -0.889450
      8          1           0        1.251199   -0.075355    0.889450
 ---------------------------------------------------------------------
 Rotational constants (GHZ):          29.3242055           1.5034225           1.4563899
 Standard basis: 6-311+G(2d,p) (5D, 7F)
 There are    54 symmetry adapted cartesian basis functions of AG  symmetry.
 There are    24 symmetry adapted cartesian basis functions of BG  symmetry.
 There are    24 symmetry adapted cartesian basis functions of AU  symmetry.
 There are    54 symmetry adapted cartesian basis functions of BU  symmetry.
 There are    50 symmetry adapted basis functions of AG  symmetry.
 There are    24 symmetry adapted basis functions of BG  symmetry.
 There are    24 symmetry adapted basis functions of AU  symmetry.
 There are    50 symmetry adapted basis functions of BU  symmetry.
   148 basis functions,   234 primitive gaussians,   156 cartesian basis functions
    25 alpha electrons       25 beta electrons
       nuclear repulsion energy       194.6735539051 Hartrees.
 NAtoms=    8 NActive=    8 NUniq=    3 SFac= 4.00D+00 NAtFMM=   60 NAOKFM=F Big=F
 Integral buffers will be    131072 words long.
 Raffenetti 2 integral format.
 Two-electron integral symmetry is turned on.
 R6APFD:  NTU= -4 IXU= 1 FactS= 1.050
 Nuclear repulsion after empirical dispersion term =      194.6712941624 Hartrees.
 One-electron integrals computed using PRISM.
 NBasis=   148 RedAO= T EigKep=  6.52D-05  NBF=    50    24    24    50
 NBsUse=   148 1.00D-06 EigRej= -1.00D+00 NBFU=    50    24    24    50
 Initial guess from the checkpoint file:  "output.chk"
 B after Tr=     0.000000    0.000000    0.000000
         Rot=    1.000000    0.000000    0.000000    0.000000 Ang=   0.00 deg.
 Initial guess orbital symmetries:
       Occupied  (BU) (AG) (AG) (BU) (BU) (AG) (BU) (AG) (BU) (AG)
                 (AU) (BG) (AG) (BU) (AG) (BU) (AU) (BU) (AG) (BG)
                 (AG) (BU) (BG) (AU) (AG)
       Virtual   (BU) (AG) (BU) (AG) (AU) (BU) (AG) (BG) (AG) (BG)
                 (AG) (BU) (BU) (AU) (BU) (AU) (AG) (BG) (AG) (BU)
                 (BU) (AG) (BU) (AU) (BU) (BG) (AG) (AG) (AU) (BU)
                 (AG) (BG) (AG) (BG) (BU) (AU) (BU) (AG) (BU) (AU)
                 (BU) (AU) (BG) (AG) (AG) (BU) (BU) (AG) (AG) (BG)
                 (AU) (BG) (BU) (BU) (AG) (BG) (BU) (AU) (AG) (AG)
                 (BU) (AG) (BU) (BG) (AU) (BU) (AG) (AU) (BG) (AG)
                 (BG) (BU) (AU) (AG) (BU) (AU) (BU) (AG) (BG) (AU)
                 (AG) (AG) (BG) (BU) (BU) (AU) (BU) (AG) (BG) (BU)
                 (AU) (AG) (AG) (BU) (BG) (AG) (BG) (AU) (AG) (BU)
                 (AU) (BG) (BU) (AG) (BU) (AG) (AG) (BU) (AU) (BG)
                 (BU) (AG) (BU) (AG) (BU) (BG) (BU) (AU) (AG) (BU)
                 (AG) (AG) (BU)
 Keep R1 ints in memory in symmetry-blocked form, NReq=88388403.
 Requested convergence on RMS density matrix=1.00D-08 within 128 cycles.
 Requested convergence on MAX density matrix=1.00D-06.
 Requested convergence on             energy=1.00D-06.
 No special actions if energy rises.
 SCF Done:  E(RAPFD) =  -998.796908931     A.U. after    1 cycles
            NFock=  1  Conv=0.13D-08     -V/T= 2.0023
 DoSCS=F DFT=T ScalE2(SS,OS)=  1.000000  1.000000
 Range of M.O.s used for correlation:     1   148
 NBasis=   148 NAE=    25 NBE=    25 NFC=     0 NFV=     0
 NROrb=    148 NOA=    25 NOB=    25 NVA=   123 NVB=   123

 **** Warning!!: The largest alpha MO coefficient is  0.50141331D+02

          Differentiating once with respect to electric field.
                with respect to dipole field.
          Electric field/nuclear overlap derivatives assumed to be zero.
 Keep R1 ints in memory in symmetry-blocked form, NReq=88302722.
          There are     3 degrees of freedom in the 1st order CPHF.  IDoFFX=0 NUNeed=     3.
      3 vectors produced by pass  0 Test12= 1.02D-13 3.33D-08 XBig12= 5.22D+01 4.34D+00.
 AX will form     3 AO Fock derivatives at one time.
      3 vectors produced by pass  1 Test12= 1.02D-13 3.33D-08 XBig12= 9.30D+00 8.40D-01.
      3 vectors produced by pass  2 Test12= 1.02D-13 3.33D-08 XBig12= 6.41D-01 2.00D-01.
      3 vectors produced by pass  3 Test12= 1.02D-13 3.33D-08 XBig12= 3.15D-02 3.75D-02.
      3 vectors produced by pass  4 Test12= 1.02D-13 3.33D-08 XBig12= 2.07D-03 1.21D-02.
      3 vectors produced by pass  5 Test12= 1.02D-13 3.33D-08 XBig12= 3.36D-05 2.43D-03.
      3 vectors produced by pass  6 Test12= 1.02D-13 3.33D-08 XBig12= 2.68D-07 1.11D-04.
      3 vectors produced by pass  7 Test12= 1.02D-13 3.33D-08 XBig12= 2.39D-09 1.35D-05.
      3 vectors produced by pass  8 Test12= 1.02D-13 3.33D-08 XBig12= 1.09D-11 8.09D-07.
      2 vectors produced by pass  9 Test12= 1.02D-13 3.33D-08 XBig12= 4.02D-14 4.18D-08.
 InvSVY:  IOpt=1 It=  1 EMax= 2.66D-15
 Solved reduced A of dimension    29 with     3 vectors.
 End of Minotr F.D. properties file   721 does not exist.
 End of Minotr F.D. properties file   722 does not exist.
 End of Minotr F.D. properties file   788 does not exist.
 R6APFD:  NTU= -4 IXU= 1 FactS= 1.050
 Symmetrizing basis deriv contribution to polar:
 IMax=3 JMax=2 DiffMx= 0.00D+00
 G2DrvN: will do     9 centers at a time, making    1 passes.
 PxScal for G2LodP:  IOpCl= 0 ISclPx=1 IMOff=     1 NMtTot=     4 NTT=   11026 ScalPx= 1.64D+01
 Calling FoFCou, ICntrl=  3107 FMM=F I1Cent=   0 AccDes= 0.00D+00.
 End of G2Drv F.D. properties file   721 does not exist.
 End of G2Drv F.D. properties file   722 does not exist.
 End of G2Drv F.D. properties file   788 does not exist.
          IDoAtm=11111111
          Differentiating once with respect to electric field.
                with respect to dipole field.
          Differentiating once with respect to nuclear coordinates.
 Keep R1 ints in memory in symmetry-blocked form, NReq=88297982.
          There are    12 degrees of freedom in the 1st order CPHF.  IDoFFX=4 NUNeed=    12.
 Will reuse    3 saved solutions.
      9 vectors produced by pass  0 Test12= 2.56D-14 8.33D-09 XBig12= 5.87D-02 5.21D-02.
 AX will form     9 AO Fock derivatives at one time.
      9 vectors produced by pass  1 Test12= 2.56D-14 8.33D-09 XBig12= 7.80D-03 2.78D-02.
      9 vectors produced by pass  2 Test12= 2.56D-14 8.33D-09 XBig12= 2.04D-04 4.00D-03.
      9 vectors produced by pass  3 Test12= 2.56D-14 8.33D-09 XBig12= 1.04D-05 8.91D-04.
      9 vectors produced by pass  4 Test12= 2.56D-14 8.33D-09 XBig12= 5.40D-07 1.83D-04.
      9 vectors produced by pass  5 Test12= 2.56D-14 8.33D-09 XBig12= 5.74D-09 1.31D-05.
      9 vectors produced by pass  6 Test12= 2.56D-14 8.33D-09 XBig12= 2.64D-11 6.89D-07.
      3 vectors produced by pass  7 Test12= 2.56D-14 8.33D-09 XBig12= 9.88D-14 5.20D-08.
 InvSVY:  IOpt=1 It=  1 EMax= 5.55D-16
 Solved reduced A of dimension    66 with     9 vectors.
 Isotropic polarizability for W=    0.000000       51.46 Bohr**3.
 End of Minotr F.D. properties file   721 does not exist.
 End of Minotr F.D. properties file   722 does not exist.
 End of Minotr F.D. properties file   788 does not exist.

 **********************************************************************

            Population analysis using the SCF Density.

 **********************************************************************

 Orbital symmetries:
       Occupied  (BU) (AG) (AG) (BU) (BU) (AG) (BU) (AG) (BU) (AG)
                 (AU) (BG) (AG) (BU) (AG) (BU) (AU) (BU) (AG) (BG)
                 (AG) (BU) (BG) (AU) (AG)
       Virtual   (BU) (AG) (BU) (AG) (AU) (BU) (AG) (BG) (AG) (BG)
                 (AG) (BU) (BU) (AU) (BU) (AU) (AG) (BG) (AG) (BU)
                 (BU) (AG) (BU) (AU) (BU) (BG) (AG) (AG) (AU) (BU)
                 (AG) (BG) (AG) (BG) (BU) (AU) (BU) (AG) (BU) (AU)
                 (BU) (AU) (BG) (AG) (AG) (BU) (BU) (AG) (AG) (BG)
                 (AU) (BG) (BU) (BU) (AG) (BG) (BU) (AU) (AG) (AG)
                 (BU) (AG) (BU) (BG) (AU) (BU) (AG) (AU) (BG) (AG)
                 (BG) (BU) (AU) (AG) (BU) (AU) (BU) (AG) (BG) (AU)
                 (AG) (AG) (BG) (BU) (BU) (AU) (BU) (AG) (BG) (BU)
                 (AU) (AG) (AG) (BU) (BG) (AG) (BG) (AU) (AG) (BU)
                 (AU) (BG) (BU) (AG) (BU) (AG) (AG) (BU) (AU) (BG)
                 (BU) (AG) (BU) (AG) (BU) (BG) (BU) (AU) (AG) (BU)
                 (AG) (AG) (BU)
 The electronic state is 1-AG.
 Alpha  occ. eigenvalues -- -101.65203-101.65202 -10.27648 -10.27621  -9.51309
 Alpha  occ. eigenvalues --   -9.51308  -7.25990  -7.25990  -7.25027  -7.25027
 Alpha  occ. eigenvalues --   -7.25002  -7.25002  -0.91107  -0.86818  -0.74515
 Alpha  occ. eigenvalues --   -0.64892  -0.52287  -0.47656  -0.46452  -0.42905
 Alpha  occ. eigenvalues --   -0.40944  -0.33375  -0.32245  -0.31938  -0.31765
 Alpha virt. eigenvalues --   -0.00999   0.00457   0.03262   0.03285   0.04242
 Alpha virt. eigenvalues --    0.05254   0.06871   0.07808   0.09095   0.09442
 Alpha virt. eigenvalues --    0.09962   0.10156   0.12173   0.12502   0.12927
 Alpha virt. eigenvalues --    0.15850   0.16625   0.18702   0.19679   0.21140
 Alpha virt. eigenvalues --    0.22115   0.23094   0.24393   0.36396   0.37047
 Alpha virt. eigenvalues --    0.37666   0.37723   0.40098   0.40824   0.43145
 Alpha virt. eigenvalues --    0.44713   0.45533   0.46267   0.46483   0.46853
 Alpha virt. eigenvalues --    0.47429   0.49698   0.49782   0.51802   0.54127
 Alpha virt. eigenvalues --    0.58163   0.59484   0.61668   0.63463   0.67070
 Alpha virt. eigenvalues --    0.67960   0.74116   0.75166   0.78916   0.79831
 Alpha virt. eigenvalues --    0.85836   0.89217   0.90925   0.98018   0.99079
 Alpha virt. eigenvalues --    1.04643   1.14912   1.16472   1.18463   1.23486
 Alpha virt. eigenvalues --    1.24035   1.29502   1.37688   1.60001   1.63037
 Alpha virt. eigenvalues --    1.78389   1.82686   1.90753   2.05095   2.10076
 Alpha virt. eigenvalues --    2.15854   2.19152   2.23492   2.27844   2.30538
 Alpha virt. eigenvalues --    2.35367   2.35747   2.35863   2.36678   2.37779
 Alpha virt. eigenvalues --    2.40056   2.42237   2.43610   2.44479   2.47026
 Alpha virt. eigenvalues --    2.47282   2.51524   2.57678   2.60901   2.67010
 Alpha virt. eigenvalues --    2.70506   2.70858   2.77000   2.79122   2.80876
 Alpha virt. eigenvalues --    3.09567   3.20547   3.23464   3.26049   3.26630
 Alpha virt. eigenvalues --    3.42696   3.42933   3.44148   3.47862   3.49613
 Alpha virt. eigenvalues --    3.55191   3.67623   3.82332   4.18251   4.18873
 Alpha virt. eigenvalues --    4.41032   9.76105   9.84076  23.87247  23.89481
 Alpha virt. eigenvalues --   25.89887  25.96038  25.97802  26.00653  26.98435
 Alpha virt. eigenvalues --   27.01495 215.88332 215.96926
          Condensed to atoms (all electrons):
               1          2          3          4          5          6
     1  Cl  16.771676   0.266740  -0.029144   0.012843   0.004776   0.004776
     2  C    0.266740   5.366630   0.091892  -0.029144  -0.058840  -0.058840
     3  C   -0.029144   0.091892   5.366630   0.266740   0.427215   0.427215
     4  Cl   0.012843  -0.029144   0.266740  16.771676  -0.045882  -0.045882
     5  H    0.004776  -0.058840   0.427215  -0.045882   0.524789  -0.037557
     6  H    0.004776  -0.058840   0.427215  -0.045882  -0.037557   0.524789
     7  H   -0.045882   0.427215  -0.058840   0.004776   0.006075  -0.006963
     8  H   -0.045882   0.427215  -0.058840   0.004776  -0.006963   0.006075
               7          8
     1  Cl  -0.045882  -0.045882
     2  C    0.427215   0.427215
     3  C   -0.058840  -0.058840
     4  Cl   0.004776   0.004776
     5  H    0.006075  -0.006963
     6  H   -0.006963   0.006075
     7  H    0.524789  -0.037557
     8  H   -0.037557   0.524789
 Mulliken charges:
               1
     1  Cl   0.060095
     2  C   -0.432867
     3  C   -0.432867
     4  Cl   0.060095
     5  H    0.186386
     6  H    0.186386
     7  H    0.186386
     8  H    0.186386
 Sum of Mulliken charges =   0.00000
 Mulliken charges with hydrogens summed into heavy atoms:
               1
     1  Cl   0.060095
     2  C   -0.060095
     3  C   -0.060095
     4  Cl   0.060095
 APT charges:
               1
     1  Cl  -0.336859
     2  C    0.333185
     3  C    0.333185
     4  Cl  -0.336859
     5  H    0.001837
     6  H    0.001837
     7  H    0.001837
     8  H    0.001837
 Sum of APT charges =   0.00000
 APT charges with hydrogens summed into heavy atoms:
               1
     1  Cl  -0.336859
     2  C    0.336859
     3  C    0.336859
     4  Cl  -0.336859
 Electronic spatial extent (au):  <R**2>=            715.1737
 Charge=              0.0000 electrons
 Dipole moment (field-independent basis, Debye):
    X=              0.0000    Y=             -0.0000    Z=              0.0000  Tot=              0.0000
 Quadrupole moment (field-independent basis, Debye-Ang):
   XX=            -37.8330   YY=            -44.4931   ZZ=            -37.8165
   XY=             -2.4834   XZ=             -0.0000   YZ=             -0.0000
 Traceless Quadrupole moment (field-independent basis, Debye-Ang):
   XX=              2.2145   YY=             -4.4456   ZZ=              2.2310
   XY=             -2.4834   XZ=             -0.0000   YZ=             -0.0000
 Octapole moment (field-independent basis, Debye-Ang**2):
  XXX=              0.0000  YYY=             -0.0000  ZZZ=             -0.0000  XYY=              0.0000
  XXY=             -0.0000  XXZ=             -0.0000  XZZ=             -0.0000  YZZ=             -0.0000
  YYZ=              0.0000  XYZ=              0.0000
 Hexadecapole moment (field-independent basis, Debye-Ang**3):
 XXXX=           -180.2499 YYYY=           -659.8334 ZZZZ=            -55.5063 XXXY=           -121.9926
 XXXZ=              0.0000 YYYX=           -116.6057 YYYZ=             -0.0000 ZZZX=             -0.0000
 ZZZY=             -0.0000 XXYY=           -152.0051 XXZZ=            -36.1473 YYZZ=           -129.6577
 XXYZ=             -0.0000 YYXZ=             -0.0000 ZZXY=            -40.6786
 N-N= 1.946712941624D+02 E-N=-2.759384521491D+03  KE= 9.964735628448D+02
 Symmetry AG   KE= 4.520863082284D+02
 Symmetry BG   KE= 4.789118652236D+01
 Symmetry AU   KE= 4.778949770440D+01
 Symmetry BU   KE= 4.487065703896D+02
  Exact polarizability:      44.392       6.612      69.935       0.000       0.000      40.066
 Approx polarizability:      61.246       3.784      96.458       0.000       0.000      59.361
 R6APFD:  NTU= -4 IXU= 1 FactS= 1.050
 Calling FoFJK, ICntrl=    100127 FMM=F ISym2X=1 I1Cent= 0 IOpClX= 0 NMat=1 NMatS=1 NMatT=0.
 Full mass-weighted force constant matrix:
 Low frequencies ---   -5.0728   -4.8053   -0.0022    0.0028    0.0033    8.2115
 Low frequencies ---  119.8390  217.2277  303.7719
 Diagonal vibrational polarizability:
        4.9425292       5.7915213      12.4889196
 Diagonal vibrational hyperpolarizability:
       -0.0000000       0.0000000       0.0000011
 Harmonic frequencies (cm**-1), IR intensities (KM/Mole), Raman scattering
 activities (A**4/AMU), depolarization ratios for plane and unpolarized
 incident light, reduced masses (AMU), force constants (mDyne/A),
 and normal coordinates:
                           1         2         3         4         5
                          AU        BU        AG        BU        AG
       Frequencies ---   119.8390  217.2277  303.7719  736.2686  775.0890
    Reduced masses ---     4.0483    5.2845   16.5751    8.7991    5.2872
   Force constants ---     0.0343    0.1469    0.9012    2.8104    1.8715
    IR Intensities ---     6.5794    8.8338    0.0000  101.5416    0.0000
  Raman Activities ---     0.0000    0.0000    4.1006    0.0000   49.2916
    Depol. (Plane) ---     0.0000    0.0000    0.2682    0.0000    0.2453
    Depol. (Unpol) ---     0.0000    0.0000    0.4230    0.0000    0.3939
 Coord Atom Element:
   1     1    17         -0.00000  -0.14632   0.18754  -0.00080   0.02759
   2     1    17         -0.00000  -0.00096   0.42029  -0.18858  -0.10564
   3     1    17         -0.12561  -0.00000  -0.00000  -0.00000  -0.00000
   1     2     6          0.00000   0.35805  -0.02861   0.00838  -0.10139
   2     2     6         -0.00000  -0.01362   0.22992   0.49443   0.38412
   3     2     6          0.29925   0.00000   0.00000   0.00000   0.00000
   1     3     6          0.00000   0.35805   0.02861   0.00838   0.10139
   2     3     6          0.00000  -0.01362  -0.22992   0.49443  -0.38412
   3     3     6          0.29925  -0.00000   0.00000  -0.00000   0.00000
   1     4    17          0.00000  -0.14632  -0.18754  -0.00080  -0.02759
   2     4    17          0.00000  -0.00096  -0.42029  -0.18858   0.10564
   3     4    17         -0.12561   0.00000  -0.00000   0.00000  -0.00000
   1     5     1          0.04637   0.40675  -0.04466  -0.03597  -0.00960
   2     5     1         -0.19256   0.09769  -0.33941   0.32803  -0.40258
   3     5     1          0.39762  -0.01071  -0.00742   0.03250  -0.05446
   1     6     1         -0.04637   0.40675  -0.04466  -0.03597  -0.00960
   2     6     1          0.19256   0.09769  -0.33941   0.32803  -0.40258
   3     6     1          0.39762   0.01071   0.00742  -0.03250   0.05446
   1     7     1          0.04637   0.40675   0.04466  -0.03597   0.00960
   2     7     1         -0.19256   0.09769   0.33941   0.32803   0.40258
   3     7     1          0.39762  -0.01071   0.00742   0.03250   0.05446
   1     8     1         -0.04637   0.40675   0.04466  -0.03597   0.00960
   2     8     1          0.19256   0.09769   0.33941   0.32803   0.40258
   3     8     1          0.39762   0.01071  -0.00742  -0.03250  -0.05446
                           6         7         8         9        10
                          AU        BG        AG        AU        BU
       Frequencies ---   782.7293 1008.4097 1079.4162 1146.9266 1253.2214
    Reduced masses ---     1.1094    1.3765    3.9972    1.0424    1.1453
   Force constants ---     0.4005    0.8247    2.7440    0.8079    1.0598
    IR Intensities ---     2.7880    0.0000    0.0000    1.6812   29.7032
  Raman Activities ---     0.0000    2.5804    4.1394    0.0000    0.0000
    Depol. (Plane) ---     0.0000    0.7500    0.6810    0.0000    0.0000
    Depol. (Unpol) ---     0.0000    0.8571    0.8102    0.0000    0.0000
 Coord Atom Element:
   1     1    17          0.00000  -0.00000  -0.00541   0.00000   0.00673
   2     1    17         -0.00000  -0.00000  -0.00957   0.00000  -0.00725
   3     1    17          0.00906   0.01650  -0.00000  -0.01116   0.00000
   1     2     6         -0.00000   0.00000   0.36206  -0.00000  -0.05432
   2     2     6          0.00000   0.00000   0.06717  -0.00000  -0.05476
   3     2     6         -0.06609  -0.12620   0.00000   0.03445   0.00000
   1     3     6          0.00000   0.00000  -0.36206   0.00000  -0.05432
   2     3     6         -0.00000   0.00000  -0.06717   0.00000  -0.05476
   3     3     6         -0.06609   0.12620   0.00000   0.03445  -0.00000
   1     4    17         -0.00000  -0.00000   0.00541  -0.00000   0.00673
   2     4    17          0.00000  -0.00000   0.00957  -0.00000  -0.00725
   3     4    17          0.00906  -0.01650  -0.00000  -0.01116  -0.00000
   1     5     1          0.41990  -0.18012  -0.41121   0.18140   0.20657
   2     5     1         -0.12506   0.43670  -0.11421   0.46509   0.45177
   3     5     1          0.23625  -0.13692  -0.00106  -0.01143  -0.01465
   1     6     1         -0.41990   0.18012  -0.41121  -0.18140   0.20657
   2     6     1          0.12506  -0.43670  -0.11421  -0.46509   0.45177
   3     6     1          0.23625  -0.13692   0.00106  -0.01143   0.01465
   1     7     1          0.41990   0.18012   0.41121   0.18140   0.20657
   2     7     1         -0.12506  -0.43670   0.11421   0.46509   0.45177
   3     7     1          0.23625   0.13692   0.00106  -0.01143  -0.01465
   1     8     1         -0.41990  -0.18012   0.41121  -0.18140   0.20657
   2     8     1          0.12506   0.43670   0.11421  -0.46509   0.45177
   3     8     1          0.23625   0.13692  -0.00106  -0.01143   0.01465
                          11        12        13        14        15
                          BG        AG        BU        AG        AG
       Frequencies ---  1298.3644 1331.5798 1485.3001 1488.0074 3104.6107
    Reduced masses ---     1.1549    1.2533    1.0933    1.0998    1.0577
   Force constants ---     1.1471    1.3093    1.4211    1.4347    6.0067
    IR Intensities ---     0.0000    0.0000    9.2370    0.0000    0.0000
  Raman Activities ---     6.0029    9.5285    0.0000    9.4016  172.3017
    Depol. (Plane) ---     0.7500    0.5353    0.0000    0.7097    0.0509
    Depol. (Unpol) ---     0.8571    0.6973    0.0000    0.8302    0.0968
 Coord Atom Element:
   1     1    17         -0.00000  -0.00419  -0.00058   0.00044   0.00012
   2     1    17         -0.00000   0.00696   0.00198  -0.00233   0.00016
   3     1    17          0.00432   0.00000  -0.00000  -0.00000  -0.00000
   1     2     6          0.00000   0.03912  -0.05760   0.06453  -0.04233
   2     2     6          0.00000   0.09713   0.02363   0.00049   0.02186
   3     2     6          0.08144  -0.00000  -0.00000   0.00000  -0.00000
   1     3     6          0.00000  -0.03912  -0.05760  -0.06453   0.04233
   2     3     6          0.00000  -0.09713   0.02363  -0.00049  -0.02186
   3     3     6         -0.08144  -0.00000   0.00000   0.00000  -0.00000
   1     4    17         -0.00000   0.00419  -0.00058  -0.00044  -0.00012
   2     4    17         -0.00000  -0.00696   0.00198   0.00233  -0.00016
   3     4    17         -0.00432   0.00000   0.00000  -0.00000  -0.00000
   1     5     1          0.38520   0.16991   0.35308   0.37556  -0.23969
   2     5     1          0.31027   0.46046  -0.17504  -0.13225   0.13649
   3     5     1          0.04499  -0.05993   0.30456   0.29896   0.41567
   1     6     1         -0.38520   0.16991   0.35308   0.37556  -0.23969
   2     6     1         -0.31027   0.46046  -0.17504  -0.13225   0.13649
   3     6     1          0.04499   0.05993  -0.30456  -0.29896  -0.41567
   1     7     1         -0.38520  -0.16991   0.35308  -0.37556   0.23969
   2     7     1         -0.31027  -0.46046  -0.17504   0.13225  -0.13649
   3     7     1         -0.04499   0.05993   0.30456  -0.29896  -0.41567
   1     8     1          0.38520  -0.16991   0.35308  -0.37556   0.23969
   2     8     1          0.31027  -0.46046  -0.17504   0.13225  -0.13649
   3     8     1         -0.04499  -0.05993  -0.30456   0.29896   0.41567
                          16        17        18
                          BU        BG        AU
       Frequencies ---  3113.0600 3159.7293 3184.4669
    Reduced masses ---     1.0564    1.1103    1.1120
   Force constants ---     6.0321    6.5312    6.6443
    IR Intensities ---    12.1119    0.0000    1.1769
  Raman Activities ---     0.0000   92.7121    0.0000
    Depol. (Plane) ---     0.0000    0.7500    0.0000
    Depol. (Unpol) ---     0.0000    0.8571    0.0000
 Coord Atom Element:
   1     1    17         -0.00011  -0.00000   0.00000
   2     1    17          0.00013  -0.00000  -0.00000
   3     1    17          0.00000  -0.00012   0.00021
   1     2     6          0.04086   0.00000   0.00000
   2     2     6         -0.02327  -0.00000   0.00000
   3     2     6         -0.00000   0.06828  -0.06885
   1     3     6          0.04086   0.00000  -0.00000
   2     3     6         -0.02327  -0.00000  -0.00000
   3     3     6          0.00000  -0.06828  -0.06885
   1     4    17         -0.00011  -0.00000  -0.00000
   2     4    17          0.00013  -0.00000   0.00000
   3     4    17         -0.00000   0.00012   0.00021
   1     5     1         -0.24130  -0.24838  -0.25183
   2     5     1          0.13631   0.14269   0.13866
   3     5     1          0.41483   0.40696   0.40618
   1     6     1         -0.24130   0.24838   0.25183
   2     6     1          0.13631  -0.14269  -0.13866
   3     6     1         -0.41483   0.40696   0.40618
   1     7     1         -0.24130   0.24838  -0.25183
   2     7     1          0.13631  -0.14269   0.13866
   3     7     1          0.41483  -0.40696   0.40618
   1     8     1         -0.24130  -0.24838   0.25183
   2     8     1          0.13631   0.14269  -0.13866
   3     8     1         -0.41483  -0.40696   0.40618
 Harmonic frequencies (cm**-1), IR intensities (KM/Mole), Raman scattering
 activities (A**4/AMU), depolarization ratios for plane and unpolarized
 incident light, reduced masses (AMU), force constants (mDyne/A),
 and normal coordinates:
                      1                      2                      3
                     AU                     BU                     AG
 Frequencies --    119.8390               217.2277               303.7719
 Red. masses --      4.0483                 5.2845                16.5751
 Frc consts  --      0.0343                 0.1469                 0.9012
 IR Inten    --      6.5794                 8.8338                 0.0000
 Raman Activ --      0.0000                 0.0000                 4.1006
 Depolar (P) --      0.0000                 0.0000                 0.2682
 Depolar (U) --      0.0000                 0.0000                 0.4230
  Atom  AN      X      Y      Z        X      Y      Z        X      Y      Z
     1  17    -0.00  -0.00  -0.13    -0.15  -0.00  -0.00     0.19   0.42  -0.00
     2   6     0.00  -0.00   0.30     0.36  -0.01   0.00    -0.03   0.23   0.00
     3   6     0.00   0.00   0.30     0.36  -0.01  -0.00     0.03  -0.23   0.00
     4  17     0.00   0.00  -0.13    -0.15  -0.00   0.00    -0.19  -0.42  -0.00
     5   1     0.05  -0.19   0.40     0.41   0.10  -0.01    -0.04  -0.34  -0.01
     6   1    -0.05   0.19   0.40     0.41   0.10   0.01    -0.04  -0.34   0.01
     7   1     0.05  -0.19   0.40     0.41   0.10  -0.01     0.04   0.34   0.01
     8   1    -0.05   0.19   0.40     0.41   0.10   0.01     0.04   0.34  -0.01
                      4                      5                      6
                     BU                     AG                     AU
 Frequencies --    736.2686               775.0890               782.7293
 Red. masses --      8.7991                 5.2872                 1.1094
 Frc consts  --      2.8104                 1.8715                 0.4005
 IR Inten    --    101.5416                 0.0000                 2.7880
 Raman Activ --      0.0000                49.2916                 0.0000
 Depolar (P) --      0.0000                 0.2453                 0.0000
 Depolar (U) --      0.0000                 0.3939                 0.0000
  Atom  AN      X      Y      Z        X      Y      Z        X      Y      Z
     1  17    -0.00  -0.19  -0.00     0.03  -0.11  -0.00     0.00  -0.00   0.01
     2   6     0.01   0.49   0.00    -0.10   0.38   0.00    -0.00   0.00  -0.07
     3   6     0.01   0.49  -0.00     0.10  -0.38   0.00     0.00  -0.00  -0.07
     4  17    -0.00  -0.19   0.00    -0.03   0.11  -0.00    -0.00   0.00   0.01
     5   1    -0.04   0.33   0.03    -0.01  -0.40  -0.05     0.42  -0.13   0.24
     6   1    -0.04   0.33  -0.03    -0.01  -0.40   0.05    -0.42   0.13   0.24
     7   1    -0.04   0.33   0.03     0.01   0.40   0.05     0.42  -0.13   0.24
     8   1    -0.04   0.33  -0.03     0.01   0.40  -0.05    -0.42   0.13   0.24
                      7                      8                      9
                     BG                     AG                     AU
 Frequencies --   1008.4097              1079.4162              1146.9266
 Red. masses --      1.3765                 3.9972                 1.0424
 Frc consts  --      0.8247                 2.7440                 0.8079
 IR Inten    --      0.0000                 0.0000                 1.6812
 Raman Activ --      2.5804                 4.1394                 0.0000
 Depolar (P) --      0.7500                 0.6810                 0.0000
 Depolar (U) --      0.8571                 0.8102                 0.0000
  Atom  AN      X      Y      Z        X      Y      Z        X      Y      Z
     1  17    -0.00  -0.00   0.02    -0.01  -0.01  -0.00     0.00   0.00  -0.01
     2   6     0.00   0.00  -0.13     0.36   0.07   0.00    -0.00  -0.00   0.03
     3   6     0.00   0.00   0.13    -0.36  -0.07   0.00     0.00   0.00   0.03
     4  17    -0.00  -0.00  -0.02     0.01   0.01  -0.00    -0.00  -0.00  -0.01
     5   1    -0.18   0.44  -0.14    -0.41  -0.11  -0.00     0.18   0.47  -0.01
     6   1     0.18  -0.44  -0.14    -0.41  -0.11   0.00    -0.18  -0.47  -0.01
     7   1     0.18  -0.44   0.14     0.41   0.11   0.00     0.18   0.47  -0.01
     8   1    -0.18   0.44   0.14     0.41   0.11  -0.00    -0.18  -0.47  -0.01
                     10                     11                     12
                     BU                     BG                     AG
 Frequencies --   1253.2214              1298.3644              1331.5798
 Red. masses --      1.1453                 1.1549                 1.2533
 Frc consts  --      1.0598                 1.1471                 1.3093
 IR Inten    --     29.7032                 0.0000                 0.0000
 Raman Activ --      0.0000                 6.0029                 9.5285
 Depolar (P) --      0.0000                 0.7500                 0.5353
 Depolar (U) --      0.0000                 0.8571                 0.6973
  Atom  AN      X      Y      Z        X      Y      Z        X      Y      Z
     1  17     0.01  -0.01   0.00    -0.00  -0.00   0.00    -0.00   0.01   0.00
     2   6    -0.05  -0.05   0.00     0.00   0.00   0.08     0.04   0.10  -0.00
     3   6    -0.05  -0.05  -0.00     0.00   0.00  -0.08    -0.04  -0.10  -0.00
     4  17     0.01  -0.01  -0.00    -0.00  -0.00  -0.00     0.00  -0.01   0.00
     5   1     0.21   0.45  -0.01     0.39   0.31   0.04     0.17   0.46  -0.06
     6   1     0.21   0.45   0.01    -0.39  -0.31   0.04     0.17   0.46   0.06
     7   1     0.21   0.45  -0.01    -0.39  -0.31  -0.04    -0.17  -0.46   0.06
     8   1     0.21   0.45   0.01     0.39   0.31  -0.04    -0.17  -0.46  -0.06
                     13                     14                     15
                     BU                     AG                     AG
 Frequencies --   1485.3001              1488.0074              3104.6107
 Red. masses --      1.0933                 1.0998                 1.0577
 Frc consts  --      1.4211                 1.4347                 6.0067
 IR Inten    --      9.2370                 0.0000                 0.0000
 Raman Activ --      0.0000                 9.4016               172.3017
 Depolar (P) --      0.0000                 0.7097                 0.0509
 Depolar (U) --      0.0000                 0.8302                 0.0968
  Atom  AN      X      Y      Z        X      Y      Z        X      Y      Z
     1  17    -0.00   0.00  -0.00     0.00  -0.00  -0.00     0.00   0.00  -0.00
     2   6    -0.06   0.02  -0.00     0.06   0.00   0.00    -0.04   0.02  -0.00
     3   6    -0.06   0.02   0.00    -0.06  -0.00   0.00     0.04  -0.02  -0.00
     4  17    -0.00   0.00   0.00    -0.00   0.00  -0.00    -0.00  -0.00  -0.00
     5   1     0.35  -0.18   0.30     0.38  -0.13   0.30    -0.24   0.14   0.42
     6   1     0.35  -0.18  -0.30     0.38  -0.13  -0.30    -0.24   0.14  -0.42
     7   1     0.35  -0.18   0.30    -0.38   0.13  -0.30     0.24  -0.14  -0.42
     8   1     0.35  -0.18  -0.30    -0.38   0.13   0.30     0.24  -0.14   0.42
                     16                     17                     18
                     BU                     BG                     AU
 Frequencies --   3113.0600              3159.7293              3184.4669
 Red. masses --      1.0564                 1.1103                 1.1120
 Frc consts  --      6.0321                 6.5312                 6.6443
 IR Inten    --     12.1119                 0.0000                 1.1769
 Raman Activ --      0.0000                92.7121                 0.0000
 Depolar (P) --      0.0000                 0.7500                 0.0000
 Depolar (U) --      0.0000                 0.8571                 0.0000
  Atom  AN      X      Y      Z        X      Y      Z        X      Y      Z
     1  17    -0.00   0.00   0.00    -0.00  -0.00  -0.00     0.00  -0.00   0.00
     2   6     0.04  -0.02  -0.00     0.00  -0.00   0.07     0.00   0.00  -0.07
     3   6     0.04  -0.02   0.00     0.00  -0.00  -0.07    -0.00  -0.00  -0.07
     4  17    -0.00   0.00  -0.00    -0.00  -0.00   0.00    -0.00   0.00   0.00
     5   1    -0.24   0.14   0.41    -0.25   0.14   0.41    -0.25   0.14   0.41
     6   1    -0.24   0.14  -0.41     0.25  -0.14   0.41     0.25  -0.14   0.41
     7   1    -0.24   0.14   0.41     0.25  -0.14  -0.41    -0.25   0.14   0.41
     8   1    -0.24   0.14  -0.41    -0.25   0.14  -0.41     0.25  -0.14   0.41

 -------------------
 - Thermochemistry -
 -------------------
 Temperature   298.150 Kelvin.  Pressure   1.00000 Atm.
 Atom     1 has atomic number 17 and mass  34.96885
 Atom     2 has atomic number  6 and mass  12.00000
 Atom     3 has atomic number  6 and mass  12.00000
 Atom     4 has atomic number 17 and mass  34.96885
 Atom     5 has atomic number  1 and mass   1.00783
 Atom     6 has atomic number  1 and mass   1.00783
 Atom     7 has atomic number  1 and mass   1.00783
 Atom     8 has atomic number  1 and mass   1.00783
 Molecular mass:    97.96901 amu.
 Principal axes and moments of inertia in atomic units:
                           1         2         3
     Eigenvalues --    61.544421200.421811239.18821
           X            0.35406   0.93522   0.00000
           Y            0.93522  -0.35406   0.00000
           Z           -0.00000  -0.00000   1.00000
 This molecule is an asymmetric top.
 Rotational symmetry number  2.
 Rotational temperatures (Kelvin)      1.40734     0.07215     0.06990
 Rotational constants (GHZ):          29.32421     1.50342     1.45639
 Zero-point vibrational energy     153050.3 (Joules/Mol)
                                   36.57991 (Kcal/Mol)
 Warning -- explicit consideration of   3 degrees of freedom as
           vibrations may cause significant error
 Vibrational temperatures:    172.42   312.54   437.06  1059.33  1115.18
          (Kelvin)           1126.17  1450.88  1553.04  1650.17  1803.11
                             1868.06  1915.85  2137.02  2140.91  4466.84
                             4479.00  4546.15  4581.74
 
 Zero-point correction=                           0.058294 (Hartree/Particle)
 Thermal correction to Energy=                    0.063170
 Thermal correction to Enthalpy=                  0.064114
 Thermal correction to Gibbs Free Energy=         0.029993
 Sum of electronic and zero-point Energies=           -998.738615
 Sum of electronic and thermal Energies=              -998.733739
 Sum of electronic and thermal Enthalpies=            -998.732795
 Sum of electronic and thermal Free Energies=         -998.766916
 
                     E (Thermal)             CV                S
                      KCal/Mol        Cal/Mol-Kelvin    Cal/Mol-Kelvin
 Total                   39.640             15.030             71.814
 Electronic               0.000              0.000              0.000
 Translational            0.889              2.981             39.657
 Rotational               0.889              2.981             24.641
 Vibrational             37.862              9.068              7.517
 Vibration     1          0.609              1.933              3.103
 Vibration     2          0.646              1.815              1.982
 Vibration     3          0.695              1.667              1.396
                       Q            Log10(Q)             Ln(Q)
 Total Bot       0.159992D-13        -13.795901        -31.766237
 Total V=0       0.104078D+14         13.017359         29.973577
 Vib (Bot)       0.775115D-26        -26.110634        -60.121956
 Vib (Bot)    1  0.170533D+01          0.231808          0.533758
 Vib (Bot)    2  0.911634D+00         -0.040180         -0.092517
 Vib (Bot)    3  0.624715D+00         -0.204318         -0.470460
 Vib (V=0)       0.504228D+01          0.702627          1.617858
 Vib (V=0)    1  0.227712D+01          0.357385          0.822910
 Vib (V=0)    2  0.153975D+01          0.187450          0.431619
 Vib (V=0)    3  0.130017D+01          0.113999          0.262493
 Electronic      0.100000D+01          0.000000          0.000000
 Translational   0.381142D+08          7.581087         17.456098
 Rotational      0.541559D+05          4.733646         10.899622
 ***** Axes restored to original set *****
 -------------------------------------------------------------------
 Center     Atomic                   Forces (Hartrees/Bohr)
 Number     Number              X              Y              Z
 -------------------------------------------------------------------
      1       17           0.000013308    0.000000000   -0.000111157
      2        6          -0.000147602   -0.000000000    0.000011881
      3        6           0.000147602    0.000000000   -0.000011881
      4       17          -0.000013308    0.000000000    0.000111157
      5        1          -0.000042077    0.000012728   -0.000022707
      6        1          -0.000042077   -0.000012728   -0.000022707
      7        1           0.000042077   -0.000012728    0.000022707
      8        1           0.000042077    0.000012728    0.000022707
 -------------------------------------------------------------------
 Cartesian Forces:  Max     0.000147602 RMS     0.000057269
 FormGI is forming the generalized inverse of G from B-inverse, IUseBI=4.

 GradGradGradGradGradGradGradGradGradGradGradGradGradGradGradGradGradGrad
 Berny optimization.
 Internal  Forces:  Max     0.000111432 RMS     0.000041592
 Search for a local minimum.
 Step number   1 out of a maximum of    2
 All quantities printed in internal units (Hartrees-Bohrs-Radians)
 Second derivative matrix not updated -- analytic derivatives used.
 ITU=  0
     Eigenvalues ---    0.00372   0.04197   0.04306   0.06056   0.06127
     Eigenvalues ---    0.12522   0.12589   0.12650   0.17273   0.17284
     Eigenvalues ---    0.19908   0.22385   0.26014   0.31924   0.34643
     Eigenvalues ---    0.34800   0.35184   0.35385
 Angle between quadratic step and forces=  15.42 degrees.
 Linear search not attempted -- first point.
 Iteration  1 RMS(Cart)=  0.00022057 RMS(Int)=  0.00000004
 Iteration  2 RMS(Cart)=  0.00000004 RMS(Int)=  0.00000002
 ClnCor:  largest displacement from symmetrization is 2.25D-10 for atom     7.
 Variable       Old X    -DE/DX   Delta X   Delta X   Delta X     New X
                                 (Linear)    (Quad)   (Total)
    R1        3.39145   0.00011   0.00000   0.00042   0.00042   3.39187
    R2        2.85059   0.00006   0.00000   0.00033   0.00033   2.85092
    R3        2.05708  -0.00002   0.00000  -0.00008  -0.00008   2.05700
    R4        2.05708  -0.00002   0.00000  -0.00008  -0.00008   2.05700
    R5        3.39145   0.00011   0.00000   0.00042   0.00042   3.39187
    R6        2.05708  -0.00002   0.00000  -0.00008  -0.00008   2.05700
    R7        2.05708  -0.00002   0.00000  -0.00008  -0.00008   2.05700
    A1        1.90428  -0.00001   0.00000  -0.00012  -0.00012   1.90416
    A2        1.87132   0.00003   0.00000   0.00023   0.00023   1.87155
    A3        1.87132   0.00003   0.00000   0.00023   0.00023   1.87155
    A4        1.95040  -0.00005   0.00000  -0.00028  -0.00028   1.95012
    A5        1.95040  -0.00005   0.00000  -0.00028  -0.00028   1.95012
    A6        1.91269   0.00004   0.00000   0.00027   0.00027   1.91296
    A7        1.90428  -0.00001   0.00000  -0.00012  -0.00012   1.90416
    A8        1.95040  -0.00005   0.00000  -0.00028  -0.00028   1.95012
    A9        1.95040  -0.00005   0.00000  -0.00028  -0.00028   1.95012
   A10        1.87132   0.00003   0.00000   0.00023   0.00023   1.87155
   A11        1.87132   0.00003   0.00000   0.00023   0.00023   1.87155
   A12        1.91269   0.00004   0.00000   0.00027   0.00027   1.91296
    D1        3.14159  -0.00000   0.00000   0.00000   0.00000   3.14159
    D2       -1.07526   0.00001   0.00000   0.00003   0.00003  -1.07523
    D3        1.07526  -0.00001   0.00000  -0.00003  -0.00003   1.07523
    D4        1.07526  -0.00001   0.00000  -0.00003  -0.00003   1.07523
    D5        3.14159   0.00000   0.00000   0.00000   0.00000   3.14159
    D6       -0.99107  -0.00002   0.00000  -0.00006  -0.00006  -0.99113
    D7       -1.07526   0.00001   0.00000   0.00003   0.00003  -1.07523
    D8        0.99107   0.00002   0.00000   0.00006   0.00006   0.99113
    D9        3.14159  -0.00000   0.00000   0.00000   0.00000   3.14159
         Item               Value     Threshold  Converged?
 Maximum Force            0.000111     0.000450     YES
 RMS     Force            0.000042     0.000300     YES
 Maximum Displacement     0.000463     0.001800     YES
 RMS     Displacement     0.000221     0.001200     YES
 Predicted change in Energy=-1.163438D-07
 Optimization completed.
    -- Stationary point found.
                           ----------------------------
                           !   Optimized Parameters   !
                           ! (Angstroms and Degrees)  !
 --------------------------                            --------------------------
 ! Name  Definition              Value          Derivative Info.                !
 --------------------------------------------------------------------------------
 ! R1    R(1,2)                  1.7947         -DE/DX =    0.0001              !
 ! R2    R(2,3)                  1.5085         -DE/DX =    0.0001              !
 ! R3    R(2,7)                  1.0886         -DE/DX =    0.0                 !
 ! R4    R(2,8)                  1.0886         -DE/DX =    0.0                 !
 ! R5    R(3,4)                  1.7947         -DE/DX =    0.0001              !
 ! R6    R(3,5)                  1.0886         -DE/DX =    0.0                 !
 ! R7    R(3,6)                  1.0886         -DE/DX =    0.0                 !
 ! A1    A(1,2,3)              109.107          -DE/DX =    0.0                 !
 ! A2    A(1,2,7)              107.219          -DE/DX =    0.0                 !
 ! A3    A(1,2,8)              107.219          -DE/DX =    0.0                 !
 ! A4    A(3,2,7)              111.7498         -DE/DX =    0.0                 !
 ! A5    A(3,2,8)              111.7498         -DE/DX =    0.0                 !
 ! A6    A(7,2,8)              109.5889         -DE/DX =    0.0                 !
 ! A7    A(2,3,4)              109.107          -DE/DX =    0.0                 !
 ! A8    A(2,3,5)              111.7498         -DE/DX =    0.0                 !
 ! A9    A(2,3,6)              111.7498         -DE/DX =    0.0                 !
 ! A10   A(4,3,5)              107.219          -DE/DX =    0.0                 !
 ! A11   A(4,3,6)              107.219          -DE/DX =    0.0                 !
 ! A12   A(5,3,6)              109.5889         -DE/DX =    0.0                 !
 ! D1    D(1,2,3,4)            180.0            -DE/DX =    0.0                 !
 ! D2    D(1,2,3,5)            -61.608          -DE/DX =    0.0                 !
 ! D3    D(1,2,3,6)             61.608          -DE/DX =    0.0                 !
 ! D4    D(7,2,3,4)             61.608          -DE/DX =    0.0                 !
 ! D5    D(7,2,3,5)            180.0            -DE/DX =    0.0                 !
 ! D6    D(7,2,3,6)            -56.784          -DE/DX =    0.0                 !
 ! D7    D(8,2,3,4)            -61.608          -DE/DX =    0.0                 !
 ! D8    D(8,2,3,5)             56.784          -DE/DX =    0.0                 !
 ! D9    D(8,2,3,6)            180.0            -DE/DX =    0.0                 !
 --------------------------------------------------------------------------------
 GradGradGradGradGradGradGradGradGradGradGradGradGradGradGradGradGradGrad

 Dipole is zero, so no output in dipole orientation.

 ----------------------------------------------------------------------

 Electric dipole moment (input orientation):
 (Debye = 10**-18 statcoulomb cm , SI units = C m)
                  (au)            (Debye)         (10**-30 SI)
   Tot        0.000000D+00      0.000000D+00      0.000000D+00
   x          0.000000D+00      0.000000D+00      0.000000D+00
   y          0.000000D+00      0.000000D+00      0.000000D+00
   z          0.000000D+00      0.000000D+00      0.000000D+00

 Dipole polarizability, Alpha (input orientation).
 (esu units = cm**3 , SI units = C**2 m**2 J**-1)
 Alpha(0;0):
               (au)            (10**-24 esu)      (10**-40 SI)
   iso        0.514643D+02      0.762622D+01      0.848531D+01
   aniso      0.302123D+02      0.447700D+01      0.498133D+01
   xx         0.443372D+02      0.657010D+01      0.731022D+01
   yx         0.000000D+00      0.000000D+00      0.000000D+00
   yy         0.400662D+02      0.593721D+01      0.660603D+01
   zx         0.650517D+01      0.963966D+00      0.107256D+01
   zy         0.000000D+00      0.000000D+00      0.000000D+00
   zz         0.699893D+02      0.103713D+02      0.115397D+02

 ----------------------------------------------------------------------
 Unable to Open any file for archive entry.
 1\1\GINC-C0006\Freq\RAPFD\6-311+G(2d,p)\C2H4Cl2\WEBMO\08-Sep-2026\0\\#
 N Geom=AllCheck Guess=TCheck SCRF=Check GenChk RAPFD/6-311+G(2d,p) Fre
 q\\C2H4Cl2\\0,1\Cl,0.0108821877,0.,0.0225244657\C,0.0033943596,0.,1.81
 7186195\C,1.4266848356,0.,2.3169001956\Cl,1.4191970075,0.,4.1115619249
 \H,1.966542431,-0.8894499681,1.9969090771\H,1.966542431,0.8894499681,1
 .9969090771\H,-0.5364632357,0.8894499681,2.1371773135\H,-0.5364632357,
 -0.8894499681,2.1371773135\\Version=ES64L-G16RevC.02\State=1-AG\HF=-99
 8.7969089\RMSD=1.253e-09\RMSF=5.727e-05\ZeroPoint=0.0582938\Thermal=0.
 0631702\ETot=-998.7337388\HTot=-998.7327946\GTot=-998.7669157\Dipole=0
 .,0.,0.\DipoleDeriv=-0.1993099,0.,-0.1006598,0.,-0.1476305,0.,-0.14299
 38,0.,-0.6636366,0.1192747,0.,0.1200514,0.,0.1167666,0.,0.118718,0.,0.
 7635148,0.1192747,0.,0.1200514,0.,0.1167666,0.,0.118718,0.,0.7635148,-
 0.1993099,0.,-0.1006598,0.,-0.1476305,0.,-0.1429938,0.,-0.6636366,0.04
 00176,0.0244784,-0.0096958,0.0509831,0.0154319,-0.0339243,0.0121379,-0
 .037891,-0.0499391,0.0400176,-0.0244784,-0.0096958,-0.0509831,0.015431
 9,0.0339243,0.0121379,0.037891,-0.0499391,0.0400176,0.0244784,-0.00969
 58,0.0509831,0.0154319,-0.0339243,0.0121379,-0.037891,-0.0499391,0.040
 0176,-0.0244784,-0.0096958,-0.0509831,0.0154319,0.0339243,0.0121379,0.
 037891,-0.0499391\Polar=44.3372054,0.,40.0662486,6.5051653,0.,69.98931
 57\PolarDeriv=-1.5124229,0.,-0.1267549,-3.7928094,0.,1.2077628,0.,-1.0
 214271,0.,0.,-4.7154093,0.,-2.0847414,0.,-1.4263227,-2.9587402,0.,-17.
 504997,0.5097726,0.0000002,2.6768186,-0.9782668,0.,0.9481955,0.,4.0895
 754,0.,0.,-2.3402133,0.,-0.1762829,0.,-1.4087587,5.0855948,0.,13.43288
 92,-0.5097726,0.0000002,-2.6768186,0.9782668,0.,-0.9481955,0.,-4.08957
 54,0.,0.,2.3402133,0.,0.1762829,0.,1.4087587,-5.0855948,0.,-13.4328892
 ,1.5124229,0.,0.1267549,3.7928094,0.,-1.2077628,0.,1.0214271,0.,0.,4.7
 154093,0.,2.0847414,0.,1.4263227,2.9587402,0.,17.504997,2.6016202,-1.7
 343083,1.5847798,-1.024599,0.3902032,0.6236287,-2.3158811,2.5585366,-4
 .0013528,0.4412562,-1.5792903,-2.2817691,-0.9685396,0.5674758,-1.05212
 6,1.1464132,-1.4157843,-0.8239454,2.6016202,1.7343083,1.5847798,-1.024
 599,-0.3902032,0.6236287,2.3158811,2.5585366,4.0013528,-0.4412562,-1.5
 792903,2.2817691,-0.9685396,-0.5674758,-1.052126,1.1464132,1.4157843,-
 0.8239454,-2.6016202,1.7343083,-1.5847798,1.024599,-0.3902032,-0.62362
 87,2.3158811,-2.5585366,4.0013528,-0.4412562,1.5792903,2.2817691,0.968
 5396,-0.5674758,1.052126,-1.1464132,1.4157843,0.8239454,-2.6016202,-1.
 7343083,-1.5847798,1.024599,0.3902032,-0.6236287,-2.3158811,-2.5585366
 ,-4.0013528,0.4412562,1.5792903,-2.2817691,0.9685396,0.5674758,1.05212
 6,-1.1464132,-1.4157843,0.8239454\HyperPolar=0.,0.,0.,0.,0.,0.,0.,0.,0
 .,0.\Quadrupole=1.6617675,1.6587307,-3.3204982,0.,-1.8255985,0.\PG=C02
 H [SGH(C2Cl2),X(H4)]\NImag=0\\0.02637138,0.,0.02253343,0.00017809,0.,0
 .21421645,-0.03313719,0.,0.00703453,0.50968186,0.,-0.03460541,0.,0.,0.
 60385978,0.00475003,0.,-0.13345161,-0.04036927,0.,0.33393825,0.0031808
 4,0.,0.00169933,-0.21250160,0.,-0.03777885,0.50968186,0.,0.00018148,0.
 ,0.,-0.08663416,0.,0.,0.60385978,-0.02058261,0.,-0.02959800,-0.0377788
 5,0.,-0.05918519,-0.04036927,0.,0.33393825,-0.00279839,0.,-0.00639990,
 0.00318084,0.,-0.02058261,-0.03313719,0.,0.00475003,0.02637138,0.,0.00
 143398,0.,0.,0.00018148,0.,0.,-0.03460541,0.,0.,0.02253343,-0.00639990
 ,0.,-0.00408343,0.00169933,0.,-0.02959800,0.00703453,0.,-0.13345161,0.
 00017809,0.,0.21421645,0.00112646,-0.00063640,0.00026691,-0.01750592,0
 .02779504,0.00867134,-0.11610603,0.11040904,0.03831902,0.00206523,-0.0
 0186676,-0.00152293,0.12547761,-0.00002490,0.00019754,0.00098264,-0.00
 142488,0.00193859,0.00022255,0.11261425,-0.24333944,-0.06560788,-0.002
 42713,0.00503072,0.00293790,-0.12127255,0.25246855,-0.00004798,0.00040
 641,0.00116590,-0.00623904,0.00986214,0.00398781,0.04094617,-0.0664770
 7,-0.05983954,0.01107517,-0.01860900,-0.02470761,-0.03882163,0.0683851
 4,0.07532912,0.00112646,0.00063640,0.00026691,-0.01750592,-0.02779504,
 0.00867134,-0.11610603,-0.11040904,0.03831902,0.00206523,0.00186676,-0
 .00152293,0.00891573,0.01326299,-0.00492989,0.12547761,0.00002490,0.00
 019754,-0.00098264,0.00142489,0.00193859,-0.00022255,-0.11261425,-0.24
 333944,0.06560788,0.00242713,0.00503072,-0.00293790,-0.01326299,-0.018
 60088,0.00705642,0.12127255,0.25246855,-0.00004798,-0.00040641,0.00116
 591,-0.00623904,-0.00986214,0.00398781,0.04094617,0.06647707,-0.059839
 54,0.01107517,0.01860900,-0.02470761,-0.00492989,-0.00705642,0.0047665
 3,-0.03882163,-0.06838514,0.07532912,0.00206523,-0.00186676,-0.0015229
 3,-0.11610603,0.11040904,0.03831902,-0.01750592,0.02779504,0.00867134,
 0.00112646,-0.00063640,0.00026691,-0.00497533,-0.00094658,-0.00248718,
 0.00100227,-0.00021880,0.00050437,0.12547761,-0.00242713,0.00503072,0.
 00293790,0.11261425,-0.24333944,-0.06560788,-0.00142489,0.00193859,0.0
 0022255,-0.00002490,0.00019754,0.00098264,-0.00094658,0.00139249,-0.00
 024399,0.00021880,0.00091243,0.00038006,-0.12127255,0.25246855,0.01107
 517,-0.01860900,-0.02470761,0.04094617,-0.06647707,-0.05983954,-0.0062
 3904,0.00986214,0.00398781,-0.00004798,0.00040641,0.00116591,-0.002487
 18,-0.00024399,-0.00064962,0.00050437,-0.00038006,-0.00005260,-0.03882
 163,0.06838514,0.07532912,0.00206523,0.00186676,-0.00152293,-0.1161060
 3,-0.11040904,0.03831902,-0.01750592,-0.02779504,0.00867134,0.00112646
 ,0.00063640,0.00026691,0.00100227,0.00021880,0.00050437,-0.00497533,0.
 00094658,-0.00248718,0.00891573,0.01326299,-0.00492989,0.12547761,0.00
 242713,0.00503072,-0.00293790,-0.11261425,-0.24333944,0.06560788,0.001
 42488,0.00193859,-0.00022255,0.00002490,0.00019754,-0.00098264,-0.0002
 1880,0.00091243,-0.00038006,0.00094658,0.00139249,0.00024399,-0.013262
 99,-0.01860088,0.00705642,0.12127255,0.25246855,0.01107517,0.01860900,
 -0.02470761,0.04094617,0.06647707,-0.05983954,-0.00623904,-0.00986214,
 0.00398781,-0.00004798,-0.00040641,0.00116590,0.00050437,0.00038006,-0
 .00005260,-0.00248718,0.00024399,-0.00064962,-0.00492989,-0.00705642,0
 .00476653,-0.03882163,-0.06838514,0.07532912\\-0.00001331,0.,0.0001111
 6,0.00014760,0.,-0.00001188,-0.00014760,0.,0.00001188,0.00001331,0.,-0
 .00011116,0.00004208,-0.00001273,0.00002271,0.00004208,0.00001273,0.00
 002271,-0.00004208,0.00001273,-0.00002271,-0.00004208,-0.00001273,-0.0
 0002271\\\@
 The archive entry for this job was punched.


 You can't act like a skunk without someone's getting wind of it.
 -- Lorene Workman
 Job cpu time:       0 days  0 hours  2 minutes 42.6 seconds.
 Elapsed time:       0 days  0 hours  0 minutes  7.9 seconds.
 File lengths (MBytes):  RWF=     19 Int=      0 D2E=      0 Chk=      3 Scr=      1
 Normal termination of Gaussian 16 at Tue Sep  8 12:02:56 2026.
